ITEM: TIMESTEP
0
ITEM: NUMBER OF ATOMS
308
ITEM: BOX BOUNDS pp pp pp
0.0 41.86772664
0.0 8.01293404
0.0 7.36034991
ITEM: ATOMS type id x y z SE CD SE_NF BC ZPE ZPE_NF BC_NF
1 1 29.5982772622 -1.0686305143e-04 6.6147193715 0 0 0 0 0 0 0.000000
1 2 25.7566344911 -6.273286399e-04 5.5348443259 0 0 0 1.396732 0 0 0.000000
1 3 27.6922408307 2.00323351 6.0719976392 0 0 0 0 0 0 0.000000
1 4 21.9970914257 0.0021434533 4.3895435812 0 0 0 0 0 0 0.000000
1 5 23.4091874279 0.0091866956 6.358910405 0 0 0 0 0 0 0.000000
1 6 23.8320546978 2.00323351 5.0101698158 0 0 0 0 0 0 0.000000
1 7 25.3926141276 2.00323351 6.8891492186 0 0 0 0 0 0 0.000000
1 8 3.686100246 2.00323351 5.112957378 0 0 0 0 0 0 0.000000
1 9 38.0375354189 0.0013857202 6.0268516544 0 0 0 0 0 0 0.000000
1 10 39.8887627925 2.00323351 6.6584903153 0 0 0 0 0 0 0.000000
1 11 34.1904240064 -3.5293060702e-04 4.9646567166 0 0 0 0 0 0 0.000000
1 12 35.7235421405 -2.2398611298e-04 6.8633879314 0 0 0 0 0 0 0.000000
1 13 36.1115816341 2.00323351 5.5020315695 0 0 0 0 0 0 0.000000
1 14 30.3660724796 -7.655750909e-04 3.8847214429 0 0 0 0 0 0 0.000000
1 15 31.8936250601 -4.6322735948e-04 5.7896775729 0 0 0 0 0 0 0.000000
1 16 32.2813871761 2.00323351 4.4218810886 0 0 0 0 0 0 0.000000
1 17 33.8042159049 2.00323351 6.328342672 0 0 0 0 0 0 0.000000
1 18 26.5351034647 0.0014658981 2.7978742152 0 0 0 0 0 0 0.000000
1 19 28.0699685303 -3.0020651257e-04 4.7072729266 0 0 0 0 0 0 0.000000
1 20 28.451670498 2.00323351 3.3485330002 0 0 0 0 0 0 0.000000
1 21 29.9909796683 2.00323351 5.2451640994 0 0 0 0 0 0 0.000000
1 22 22.6566653775 8.0059675717 1.7487335677 0 0 0 0 0 0 0.000000
1 23 24.245742561 0.0068994649 3.6222953404 0 0 0 0 0 0 0.000000
1 24 22.3702453195 2.00323351 3.1440490065 0 0 0 0 0 0 0.000000
1 25 26.1444913868 2.00323351 4.1750653906 0 0 0 0 0 0 0.000000
1 26 21.0834012613 2.00323351 1.2807325305 0 0 0 0 0 0 0.000000
1 27 38.7558551366 7.3738576986e-04 3.3631097306 0 0 0 0 0 0 0.000000
1 28 40.538859164 0.0018042322 5.2342865151 0 0 0 0 0 0 0.000000
1 29 0.3848214354 2.00323351 1.5731976062 0 0 0 0 0 0 0.000000
1 30 34.9476190913 -1.8630857013e-04 2.2391331853 0 0 0 0 0 0 0.000000
1 31 36.4855445922 3.1536160212e-04 4.1438850512 0 0 0 0 0 0 0.000000
1 32 36.8741459241 2.00323351 2.7841428205 0 0 0 0 0 0 0.000000
1 33 40.8272731572 2.00323351 3.8193830496 0 0 0 0 0 0 0.000000
1 34 31.134101744 -5.0881424137e-04 1.1558307891 0 0 0 0 0 0 0.000000
1 35 32.6578537454 -1.5397172356e-04 3.0599270762 0 0 0 0 0 0 0.000000
1 36 33.0416540353 2.00323351 1.6966677574 0 0 0 0 0 0 0.000000
1 37 34.575888589 2.00323351 3.5996565915 0 0 0 0 0 0 0.000000
1 38 27.2951118192 0.0013957857 0.074733804 0 0 0 0 0 0 0.000000
1 39 28.8341354562 8.6911111062e-04 1.9787030705 0 0 0 0 0 0 0.000000
1 40 29.220985913 2.00323351 0.6183151045 0 0 0 0 0 0 0.000000
1 41 30.7454971535 2.00323351 2.5213799427 0 0 0 0 0 0 0.000000
1 42 24.9952903743 4.3025659734e-04 0.8917100032 0 0 0 0 0 0 0.000000
1 43 26.9234495519 2.00323351 1.4360247505 0 0 0 0 0 0 0.000000
1 44 21.041918934 -9.5341454012e-04 7.2263728444 0 0 0 0 0 0 0.000000
1 45 39.4976907286 -0.0010572873 0.539819379 0 0 0 0 0 0 0.000000
1 46 40.8044227016 -0.0022534886 2.3836694721 0 0 0 0 0 0 0.000000
1 47 17.5234195954 2.00323351 2.6738584087 0 0 0 0 0 0 0.000000
1 48 37.2439579551 1.1443243242e-04 1.4188434257 0 0 0 0 0 0 0.000000
1 49 37.6204366486 2.00323351 0.0521258228 0 0 0 0 0 0 0.000000
1 50 39.2057981091 2.00323351 1.9379938745 0 0 0 0 0 0 0.000000
1 51 33.4237354449 -3.3627325251e-04 0.3284879085 0 0 0 0 0 0 0.000000
1 52 35.3319459214 2.00323351 0.8737151563 0 0 0 0 0 0 0.000000
1 53 31.5126047194 2.00323351 7.1526926286 0 0 0 0 0 0 0.000000
1 54 29.5982772622 4.0065738831 6.6147193715 0 0 0 0 0 0 0.000000
1 55 25.7566344911 4.0070943486 5.5348443259 0 0 0 0 0 0 0.000000
1 56 27.6832212451 6.00970053 6.0703440113 0 0 0 0 0 0 0.000000
1 57 21.9970914257 4.0043235667 4.3895435812 0 0 0 0 0 0 0.000000
1 58 23.4091874279 3.9972803244 6.358910405 0 0 0 0 0 0 0.000000
1 59 23.8364655582 6.00970053 5.0098079623 0 0 0 0 0 0 0.000000
1 60 25.3826089072 6.00970053 6.8946836504 0 0 0 0 0 0 0.000000
1 61 3.6900283136 6.00970053 5.106018258 0 0 0 0 0 0 0.000000
1 62 38.0375354189 4.0050812998 6.0268516544 0 0 0 0 0 0 0.000000
1 63 0.4050235987 6.00970053 1.5500095561 0 0 0 0 0 0 0.000000
1 64 34.1904240064 4.0068199506 4.9646567166 0 0 0 0 0 0 0.000000
1 65 35.7235421405 4.0066910061 6.8633879314 0 0 0 0 0 0 0.000000
1 66 36.1129305277 6.00970053 5.5010952493 0 0 0 0 0 0 0.000000
1 67 30.3660724796 4.0072325951 3.8847214429 0 0 0 0 0 0 0.000000
1 68 31.8936250601 4.0069302474 5.7896775729 0 0 0 0 0 0 0.000000
1 69 32.2802663505 6.00970053 4.4217198703 0 0 0 0 0 0 0.000000
1 70 33.8039978239 6.00970053 6.3277065486 0 0 0 0 0 0 0.000000
1 71 26.5351034647 4.0050011219 2.7978742152 0 0 0 0 0 0 0.000000
1 72 28.0699685303 4.0067672265 4.7072729266 0 0 0 0 0 0 0.000000
1 73 28.4501122548 6.00970053 3.346616523 0 0 0 0 0 0 0.000000
1 74 29.9848231842 6.00970053 5.2476024249 0 0 0 0 0 0 0.000000
1 75 22.6566653775 4.0134334883 1.7487335677 0 0 0 0 0 0 0.000000
1 76 24.245742561 3.9995675551 3.6222953404 0 0 0 0 0 0 0.000000
1 77 22.3692045125 6.00970053 3.1411390067 0 0 0 0 0 0 0.000000
1 78 26.1468970937 6.00970053 4.169111862 0 0 0 0 0 0 0.000000
1 79 21.0624400875 6.00970053 1.2885939157 0 0 0 0 0 0 0.000000
1 80 38.7558551366 4.0057296342 3.3631097306 0 0 0 0 0 0 0.000000
1 81 40.538859164 4.0046627878 5.2342865151 0 0 0 0 0 0 0.000000
1 82 40.8273305179 6.00970053 3.8120226698 0 0 0 0 0 0 0.000000
1 83 34.9476190913 4.0066533286 2.2391331853 0 0 0 0 0 0 0.000000
1 84 36.4855445922 4.0061516584 4.1438850512 0 0 0 0 0 0 0.000000
1 85 36.8742238421 6.00970053 2.7844891995 0 0 0 0 0 0 0.000000
1 86 39.8732786884 6.00970053 6.6531378149 0 0 0 0 0 0 0.000000
1 87 31.134101744 4.0069758342 1.1558307891 0 0 0 0 0 0 0.000000
1 88 32.6578537454 4.0066209917 3.0599270762 0 0 0 0 0 0 0.000000
1 89 33.0404729306 6.00970053 1.6968249518 0 0 0 0 0 0 0.000000
1 90 34.5761465027 6.00970053 3.5993135088 0 0 0 0 0 0 0.000000
1 91 27.2951118192 4.0050712343 0.074733804 0 0 0 0 0 0 0.000000
1 92 28.8341354562 4.0055979089 1.9787030705 0 0 0 0 0 0 0.000000
1 93 29.2169473287 6.00970053 0.6165717534 0 0 0 0 0 0 0.000000
1 94 30.7429258418 6.00970053 2.5209091978 0 0 0 0 0 0 0.000000
1 95 24.9952903743 4.0060367634 0.8917100032 0 0 0 0 0 0 0.000000
1 96 26.9222886158 6.00970053 1.434942913 0 0 0 0 0 0 0.000000
1 97 21.041918934 4.0074204345 7.2263728444 0 0 0 0 0 0 0.000000
1 98 23.1151217196 6.00970053 0.3134859609 0 0 0 0 0 0 0.000000
1 99 39.4976907286 4.0075243073 0.539819379 0 0 0 0 0 0 0.000000
1 100 40.8044227016 4.0087205086 2.3836694721 0 0 0 0 0 0 0.000000
1 101 17.5252550221 6.00970053 2.6755929359 0 0 0 0 0 0 0.000000
1 102 37.2439579551 4.0063525876 1.4188434257 0 0 0 0 0 0 0.000000
1 103 37.6214130679 6.00970053 0.0518621806 0 0 0 0 0 0 0.000000
1 104 39.2028449018 6.00970053 1.9371585399 0 0 0 0 0 0 0.000000
1 105 33.4237354449 4.0068032933 0.3284879085 0 0 0 0 0 0 0.000000
1 106 35.333658801 6.00970053 0.8727156718 0 0 0 0 0 0 0.000000
1 107 31.511354057 6.00970053 7.1519291261 0 0 0 0 0 0 0.000000
1 108 19.8705593916 -0.0022534886 4.9766804379 0 0 0 0 0 0 0.000000
1 109 16.3100946451 1.1443243242e-04 5.9415064743 0 0 0 0 0 0 0.000000
1 110 18.5638274086 -0.0010572873 6.820530531 0 0 0 0 0 0 0.000000
1 111 18.2719347891 2.00323351 5.4223560355 0 0 0 0 0 0 0.000000
1 112 38.4572829154 2.00323351 4.6864915013 0 0 0 0 0 0 0.000000
1 113 12.4898721349 -3.3627325251e-04 7.0318619915 0 0 0 0 0 0 0.000000
1 114 14.3980826014 2.00323351 6.4866347537 0 0 0 0 0 0 0.000000
1 115 16.6865733386 2.00323351 -0.0521258328 0 0 0 0 0 0 0.000000
1 116 19.604995854 0.0018042322 2.1260633849 0 0 0 0 0 0 0.000000
1 117 15.5516812822 3.1536160212e-04 3.2164648488 0 0 0 0 0 0 0.000000
1 118 17.8219918166 7.3738576986e-04 3.9972401794 0 0 0 0 0 0 0.000000
1 119 19.8934098372 2.00323351 3.5409668604 0 0 0 0 0 0 0.000000
1 120 21.3186847654 2.00323351 5.7871523038 0 0 0 0 0 0 0.000000
1 121 11.7239904354 -1.5397172356e-04 4.3004228338 0 0 0 0 0 0 0.000000
1 122 14.0137557713 -1.8630857013e-04 5.1212167247 0 0 0 0 0 0 0.000000
1 123 13.642025269 2.00323351 3.7606933185 0 0 0 0 0 0 0.000000
1 124 15.9402826141 2.00323351 4.5762070795 0 0 0 0 0 0 0.000000
1 125 7.9002721362 8.6911111062e-04 5.3816468395 0 0 0 0 0 0 0.000000
1 126 10.200238424 -5.0881424137e-04 6.2045191209 0 0 0 0 0 0 0.000000
1 127 9.8116338335 2.00323351 4.8389699673 0 0 0 0 0 0 0.000000
1 128 12.1077907253 2.00323351 5.6636821426 0 0 0 0 0 0 0.000000
1 129 4.0614270543 4.3025659734e-04 6.4686399068 0 0 0 0 0 0 0.000000
1 130 6.3612484992 0.0013957857 -0.074733814 0 0 0 0 0 0 0.000000
1 131 5.9895862319 2.00323351 5.9243251495 0 0 0 0 0 0 0.000000
1 132 8.287122603 2.00323351 6.7420348055 0 0 0 0 0 0 0.000000
1 133 14.7896788205 -2.2398611298e-04 0.4969619686 0 0 0 0 0 0 0.000000
1 134 17.1036720989 0.0013857202 1.3334982556 0 0 0 0 0 0 0.000000
1 135 18.9548994725 2.00323351 0.7018595847 0 0 0 0 0 0 0.000000
1 136 10.9597617401 -4.6322735948e-04 1.5706723371 0 0 0 0 0 0 0.000000
1 137 13.2565606864 -3.5293060702e-04 2.3956931934 0 0 0 0 0 0 0.000000
1 138 12.8703525949 2.00323351 1.032007238 0 0 0 0 0 0 0.000000
1 139 15.1777183141 2.00323351 1.8583183305 0 0 0 0 0 0 0.000000
1 140 7.1361052103 -3.0020651257e-04 2.6530769834 0 0 0 0 0 0 0.000000
1 141 9.4322091696 -7.655750909e-04 3.4756284671 0 0 0 0 0 0 0.000000
1 142 9.0571163583 2.00323351 2.1151858006 0 0 0 0 0 0 0.000000
1 143 11.3475238561 2.00323351 2.9384688214 0 0 0 0 0 0 0.000000
1 144 3.311879241 0.0068994649 3.7380545696 0 0 0 0 0 0 0.000000
1 145 5.6012401547 0.0014658981 4.5624756848 0 0 0 0 0 0 0.000000
1 146 5.2106280768 2.00323351 3.1852845094 0 0 0 0 0 0 0.000000
1 147 7.517807178 2.00323351 4.0118169098 0 0 0 0 0 0 0.000000
1 148 1.7228020675 8.0059675717 5.6116163323 0 0 0 0 0 0 0.000000
1 149 0.1495379513 2.00323351 6.0796173795 0 0 0 0 0 0 0.000000
1 150 1.4363819995 2.00323351 4.2163009035 0 0 0 0 0 0 0.000000
1 151 8.6644139522 -1.0686305143e-04 0.7456305285 0 0 0 0 0 0 0.000000
1 152 10.5787413994 2.00323351 0.2076572814 0 0 0 0 0 0 0.000000
1 153 2.4753241079 0.0091866956 1.001439505 0 0 0 0 0 0 0.000000
1 154 4.8227711811 -6.273286399e-04 1.8255055741 0 0 0 0 0 0 0.000000
1 155 4.4587508176 2.00323351 0.4712006814 0 0 0 0 0 0 0.000000
1 156 6.7583775107 2.00323351 1.2883522708 0 0 0 0 0 0 0.000000
1 157 1.0632281157 0.0021434533 2.9708063288 0 0 0 0 0 0 0.000000
1 158 24.619963566 2.00323351 2.247392532 0 0 0 0 0 0 0.000000
1 159 2.8981913778 2.00323351 2.3501800942 0 0 0 0 0 0 0.000000
1 160 0.108055614 -9.5341454012e-04 0.1339770656 0 0 0 0 0 0 0.000000
1 161 19.8705593916 4.0087205086 4.9766804379 0 0 0 0 0 0 0.000000
1 162 16.3100946451 4.0063525876 5.9415064743 0 0 0 0 0 0 0.000000
1 163 18.5638274086 4.0075243073 6.820530531 0 0 0 0 0 0 0.000000
1 164 18.2689815818 6.00970053 5.4231913701 0 0 0 0 0 0 0.000000
1 165 38.4591183421 6.00970053 4.6847569741 0 0 0 0 0 0 0.000000
1 166 12.4898721349 4.0068032933 7.0318619915 0 0 0 0 0 0 0.000000
1 167 14.399795481 6.00970053 6.4876342382 0 0 0 0 0 0 0.000000
1 168 16.6875497579 6.00970053 -0.0518621906 0 0 0 0 0 0 0.000000
1 169 19.604995854 4.0046627878 2.1260633849 0 0 0 0 0 0 0.000000
1 170 15.5516812822 4.0061516584 3.2164648488 0 0 0 0 0 0 0.000000
1 171 17.8219918166 4.0057296342 3.9972401794 0 0 0 0 0 0 0.000000
1 172 18.9394153684 6.00970053 0.7072120951 0 0 0 0 0 0 0.000000
1 173 19.8934672079 6.00970053 3.5483272402 0 0 0 0 0 0 0.000000
1 174 11.7239904354 4.0066209917 4.3004228338 0 0 0 0 0 0 0.000000
1 175 14.0137557713 4.0066533286 5.1212167247 0 0 0 0 0 0 0.000000
1 176 13.6422831827 6.00970053 3.7610364012 0 0 0 0 0 0 0.000000
1 177 15.9403605321 6.00970053 4.5758607005 0 0 0 0 0 0 0.000000
1 178 7.9002721362 4.0055979089 5.3816468395 0 0 0 0 0 0 0.000000
1 179 10.200238424 4.0069758342 6.2045191209 0 0 0 0 0 0 0.000000
1 180 9.8090625218 6.00970053 4.8394407122 0 0 0 0 0 0 0.000000
1 181 12.1066096206 6.00970053 5.6635249482 0 0 0 0 0 0 0.000000
1 182 4.0614270543 4.0060367634 6.4686399068 0 0 0 0 0 0 0.000000
1 183 6.3612484992 4.0050712343 -0.074733814 0 0 0 0 0 0 0.000000
1 184 5.9884252958 6.00970053 5.925406987 0 0 0 0 0 0 0.000000
1 185 8.2830840187 6.00970053 6.7437781566 0 0 0 0 0 0 0.000000
1 186 2.1812583996 6.00970053 7.0468639391 0 0 0 0 0 0 0.000000
1 187 14.7896788205 4.0066910061 0.4969619686 0 0 0 0 0 0 0.000000
1 188 17.1036720989 4.0050812998 1.3334982556 0 0 0 0 0 0 0.000000
1 189 21.3388869187 6.00970053 5.8103403439 0 0 0 0 0 0 0.000000
1 190 10.9597617401 4.0069302474 1.5706723371 0 0 0 0 0 0 0.000000
1 191 13.2565606864 4.0068199506 2.3956931934 0 0 0 0 0 0 0.000000
1 192 12.8701345139 6.00970053 1.0326433614 0 0 0 0 0 0 0.000000
1 193 15.1790672077 6.00970053 1.8592546507 0 0 0 0 0 0 0.000000
1 194 7.1361052103 4.0067672265 2.6530769834 0 0 0 0 0 0 0.000000
1 195 9.4322091696 4.0072325951 3.4756284671 0 0 0 0 0 0 0.000000
1 196 9.0509598742 6.00970053 2.1127474751 0 0 0 0 0 0 0.000000
1 197 11.3464030305 6.00970053 2.9386300397 0 0 0 0 0 0 0.000000
1 198 3.311879241 3.9995675551 3.7380545696 0 0 0 0 0 0 0.000000
1 199 5.6012401547 4.0050011219 4.5624756848 0 0 0 0 0 0 0.000000
1 200 5.2130337837 6.00970053 3.191238038 0 0 0 0 0 0 0.000000
1 201 7.5162489348 6.00970053 4.013733387 0 0 0 0 0 0 0.000000
1 202 1.7228020675 4.0134334883 5.6116163323 0 0 0 0 0 0 0.000000
1 203 0.1285767775 6.00970053 6.0717559943 0 0 0 0 0 0 0.000000
1 204 1.4353411925 6.00970053 4.2192109033 0 0 0 0 0 0 0.000000
1 205 8.6644139522 4.0065738831 0.7456305285 0 0 0 0 0 0 0.000000
1 206 10.577490737 6.00970053 0.2084207839 0 0 0 0 0 0 0.000000
1 207 2.4753241079 3.9972803244 1.001439505 0 0 0 0 0 0 0.000000
1 208 4.8227711811 4.0070943486 1.8255055741 0 0 0 0 0 0 0.000000
1 209 4.4487455972 6.00970053 0.4656662496 0 0 0 0 0 0 0.000000
1 210 6.7493579251 6.00970053 1.2900058987 0 0 0 0 0 0 0.000000
1 211 1.0632281157 4.0043235667 2.9708063288 0 0 0 0 0 0 0.000000
1 212 24.6238916336 6.00970053 2.254331652 0 0 0 0 0 0 0.000000
1 213 2.9026022382 6.00970053 2.3505419477 0 0 0 0 0 0 0.000000
1 214 0.108055614 4.0074204345 0.1339770656 0 0 0 0 0 0 0.000000
2 215 18.11 0.5 2.49 0.34371400 714.01517897 0.11621400 1.410018 0.262157 0.193438 1.376467
2 216 18.11 3.49 2.49 0.34371400 713.10015062 0.11591400 1.409940 0.262203 0.191612 1.375536
2 217 18.11 4.51 2.48 0.34531400 714.37726237 0.11881400 1.408494 0.257385 0.191740 1.374928
2 218 18.11 7.5 2.48 0.34531400 713.10601487 0.11871400 1.407633 0.261952 0.191157 1.375554
2 219 18.34 0.94 1.76 0.36181400 717.60652303 0.13151400 1.412467 0.260023 0.183296 1.371259
2 220 18.34 3.05 1.76 0.36181400 719.55396515 0.13111400 1.411509 0.259594 0.185361 1.373601
2 221 18.34 4.94 1.77 0.36961400 719.01339518 0.13451400 1.411660 0.259989 0.182822 1.371566
2 222 18.34 7.07 1.77 0.36961400 719.32672852 0.13461400 1.411215 0.260054 0.183474 1.373840
2 223 18.72 0.98 3.07 0.33481400 709.22607440 0.14891400 1.412612 0.257464 0.213985 1.403178
2 224 18.72 3.02 3.07 0.33481400 708.82123449 0.14931400 1.411727 0.257286 0.214439 1.404051
2 225 18.72 4.98 3.07 0.33091400 708.14829831 0.14591400 1.414104 0.257021 0.214184 1.403321
2 226 18.72 7.03 3.07 0.33101400 708.28110531 0.14691400 nan 0.256976 0.214867 1.406635
2 227 19.02 1.51 2.25 0.31821400 708.92234393 0.13481400 1.392153 0.251422 0.203422 0.000000
2 228 19.02 2.48 2.25 0.31821400 709.05065217 0.13431400 1.391040 0.251181 0.202939 1.386808
2 229 19.02 5.52 2.25 0.31361400 709.77811811 0.12421400 1.389225 0.249815 0.196704 0.000000
2 230 19.02 6.49 2.25 0.31361400 710.22184748 0.12171400 1.389606 0.249547 0.191304 1.383272
2 231 19.65 0.52 0.56965009 0.24601400 672.31521769 0.05041400 1.394786 0.239471 0.192732 1.385418
2 232 19.65 3.48 0.56965009 0.24601400 672.78004097 0.04981400 1.393963 0.238898 0.190888 0.000000
2 233 19.65 4.53 0.56965009 0.23801400 671.23510118 0.04171400 1.390333 0.236764 0.193633 1.383614
2 234 19.65 7.48 0.57 0.23801400 670.91656245 0.04091400 1.389846 0.236851 0.192431 1.385345
2 235 19.85 1.63 5.14 0.23391400 632.68828286 0.05691400 1.378514 0.240071 0.198723 1.347952
2 236 19.85 2.37 5.14 0.23391400 631.42916123 0.05691400 1.379491 0.240972 0.197923 1.351424
2 237 19.86 5.65 5.16 0.19001400 619.95833302 0.02761400 1.368058 0.235925 0.195887 0.000000
2 238 19.86 6.36 5.16 0.18991400 620.28789734 0.02761400 1.367630 0.235718 0.196010 1.361399
2 239 20.04 4.84 0.81965009 0.23801400 696.96762515 0.04101400 1.391675 0.236970 0.193297 0.000000
2 240 20.06 0.84 0.81965009 0.24601400 698.59184652 0.04981400 1.394672 0.239008 0.192502 1.386824
2 241 20.06 3.16 0.81965009 0.24601400 698.19617784 0.04971400 1.392068 0.239555 0.192202 1.386613
2 242 20.33 5.57 7.14 0.06721400 546.42954151 -0.00908600 1.311388 0.178059 0.165479 1.310475
2 243 20.33 6.44 7.14 0.06721400 545.64059873 -0.00908600 1.312175 0.179561 0.165523 1.309989
2 244 20.34 1.57 7.14 0.08481400 550.43252822 0.01061400 1.307552 0.163380 0.156802 1.305262
2 245 20.34 2.43 7.14 0.08491400 551.19328602 0.01051400 1.308486 0.168700 0.157628 1.306036
2 246 20.59 0.42 3.47 0.06461400 546.50438771 -0.01128600 1.315452 0.180974 0.166441 1.314755
2 247 20.59 3.57 3.47 0.06461400 548.19049830 -0.01078600 1.316894 0.179875 0.166604 1.314067
2 248 20.59 4.43 3.47 0.05421400 546.00582327 -0.02108600 1.313638 0.178447 0.167008 1.313685
2 249 20.59 7.58 3.47 0.05421400 547.52860106 -0.02058600 1.313252 0.179176 0.167389 1.315432
2 250 20.88 5.17 4.5 0.23001400 694.16681056 0.03091400 1.392776 0.235313 0.193039 0.000000
2 251 21.07 3.64 1.46965009 0.22571400 627.70982851 0.05491400 1.382193 0.240788 0.194164 1.358617
2 252 21.07 4.37 1.46965009 0.21421400 627.03753155 0.04401400 1.381294 0.238373 0.198385 1.358519
2 253 21.07 7.64 1.47 0.21421400 628.55905594 -0.14748600 1.382624 0.238373 0.198014 1.353669
2 254 21.07 0.35706596 1.47 0.22571400 627.72749432 0.05471400 1.380778 0.236521 0.194207 1.360426
2 255 21.27 1.46 4.23 0.27041400 673.81117511 0.05811400 1.394152 0.237085 0.193925 1.389990
2 256 21.27 2.54 4.23 0.27041400 675.17741920 0.05711400 1.395394 0.237726 0.194340 1.393392
2 257 21.28 5.47 4.25 0.23001400 668.68905717 0.03041400 1.391786 0.235028 0.192405 1.391706
2 258 21.28 6.54 4.25 0.23001400 669.43760740 0.03141400 1.392851 0.234469 0.192504 1.391809
2 259 21.91 0.49 5.94 0.36871400 715.93313639 0.16811400 1.383953 0.248235 0.175591 1.379941
2 260 21.91 3.51 5.94 0.36871400 716.04658451 0.16971400 1.384417 0.247938 0.183407 0.000000
2 261 21.91 4.49 5.94 0.34801400 713.69424950 0.15751400 1.386123 0.249811 0.192979 1.385214
2 262 21.91 7.52 5.94 0.34801400 712.76899692 0.15761400 1.386787 0.249713 0.193140 1.382195
2 263 22.2 1.02 6.74 0.52921400 717.82047814 0.17851400 1.440077 0.261055 0.169239 1.372024
2 264 22.2 2.97 6.74 0.52921400 716.67814994 0.17411400 1.439834 0.261043 0.170179 1.372362
2 265 22.21 5.02 6.75 0.37331400 711.70342867 0.18261400 1.404466 0.257730 0.211138 1.394182
2 266 22.21 6.99 6.75 0.37331400 711.04765432 0.18231400 1.403562 0.257958 0.212158 1.392162
2 267 22.59 1.06 5.45 0.42461400 725.92505000 0.14571400 1.410638 0.260840 0.172215 1.369899
2 268 22.59 2.94 5.45 0.42461400 724.79811877 0.14581400 1.410405 0.260880 0.172229 1.367938
2 269 22.6 5.06 5.45 0.41011400 718.34203520 0.16151400 1.409187 0.273346 0.162734 1.371893
2 270 22.6 6.95 5.45 0.41011400 717.08920227 0.16211400 1.410224 0.259644 0.162210 1.369875
2 271 22.81 1.5 6.16 0.52431400 721.89213487 0.14451400 1.440061 0.258567 0.173230 1.370005
2 272 22.81 2.5 6.16 0.52431400 721.62214432 0.14501400 1.440623 0.258539 0.173328 1.369099
2 273 22.83 5.49 6.16 0.39751400 712.41572104 0.15571400 1.400969 0.261277 0.174836 1.365056
2 274 22.83 6.52 6.16 0.39751400 712.38861778 0.15611400 1.401592 0.261616 0.175350 1.365257
2 275 19.69 1.42 6.46 -0.06188600 513.89716850 -0.11208600 1.327897 0.143703 0.142775 1.325516
2 276 19.69 2.58 6.46 -0.06188600 513.29344397 -0.11178600 1.327102 0.144082 0.142216 1.326753
2 277 19.69 5.43 6.46 -0.05888600 509.45360434 -0.10848600 1.327383 0.144305 0.142789 1.327690
2 278 19.69 6.58 6.46 -0.05888600 508.54184259 -0.10878600 1.327394 0.144257 0.143457 1.329354
2 279 19.71 1.28 6.25 -0.06188600 533.98271643 -0.11218600 1.328944 0.142863 0.143275 1.326259
2 280 19.71 2.72 6.25 -0.06188600 533.30097404 -0.11218600 1.329634 0.143005 0.143716 1.325357
2 281 19.72 5.29 6.25 -0.05888600 530.00323812 -0.10858600 1.325766 0.143268 0.143261 1.327879
2 282 19.72 6.72 6.25 -0.05888600 527.84252714 -0.10848600 1.324626 0.143275 0.143112 1.327922
2 283 19.86 1.28 6.64 -0.06188600 522.68789579 -0.11188600 1.327770 0.144212 0.142885 1.327197
2 284 19.86 2.72 6.64 -0.06188600 521.18294914 -0.11148600 1.327394 0.144892 0.143369 1.327116
2 285 19.86 5.29 6.64 -0.05888600 517.99306999 -0.10858600 1.326010 0.143734 0.142794 1.328164
2 286 19.86 6.72 6.64 -0.05888600 518.42078200 -0.10858600 1.326520 0.144414 0.143005 1.328163
2 287 19.9 1.09 6.38 -0.06188600 553.03237387 -0.11218600 1.327507 0.144114 0.143714 1.326813
2 288 19.9 2.91 6.38 -0.06188600 552.22647564 -0.11208600 1.328095 0.143758 0.144135 1.326104
2 289 19.9 5.1 6.38 -0.05888600 548.70015422 -0.10848600 1.325497 0.143711 0.142857 1.328583
2 290 19.9 6.91 6.38 -0.05888600 545.89463206 -0.10848600 1.325639 0.143627 0.143269 1.327711
2 291 21.02 0.91 2.69 -0.05258600 549.59630970 -0.10248600 1.321472 0.143779 0.143433 1.325946
2 292 21.02 3.09 2.69 -0.05258600 550.21828085 -0.10348600 1.321359 0.143727 0.145246 1.328633
2 293 21.02 4.91 2.7 -0.06108600 548.20678260 -0.11138600 1.327297 0.145221 0.144543 1.328297
2 294 21.02 7.09 2.7 -0.06108600 551.43556446 -0.11258600 1.325560 0.144952 0.144932 1.328312
2 295 21.07 0.71 2.97 -0.05248600 519.08214132 -0.10318600 1.324688 0.142851 0.144339 1.327627
2 296 21.07 3.29 2.97 -0.05258600 519.47515902 -0.10318600 1.322301 0.144154 0.145114 1.328954
2 297 21.07 4.72 2.97 -0.06098600 519.95908627 -0.11138600 1.326186 0.144283 0.144244 1.328111
2 298 21.07 7.29 2.97 -0.06108600 521.11692033 -0.11198600 1.326039 0.144610 0.144746 1.327677
2 299 21.2 4.73 2.57 -0.06108600 531.64556945 -0.11238600 1.325985 0.144834 0.146000 1.327904
2 300 21.2 7.28 2.57 -0.06108600 532.83839032 -0.11228600 1.326799 0.145028 0.144882 1.327968
2 301 21.21 3.27 2.56 -0.05258600 534.07194706 -0.10388600 1.319676 0.143940 0.144704 1.329148
2 302 21.21 0.72706596 2.56 -0.05258600 533.21702893 -0.10288600 1.320040 0.142163 0.144682 1.327363
2 303 21.23 3.43 2.79 -0.05258600 510.58621410 -0.10388600 1.320844 0.143129 0.144553 1.327748
2 304 21.23 4.58 2.79 -0.06108600 510.24672488 -0.11108600 1.324101 0.144614 0.144142 1.328264
2 305 21.23 7.43 2.79 -0.06108600 510.71434547 -0.11208600 1.326194 0.145376 0.144243 1.327938
2 306 21.23 0.56706596 2.79 -0.05258600 509.74850129 -0.10378600 1.320801 0.143288 0.144905 1.327353
3 307 23.106057082 2.00323351 0.3130202791 0 0 0 0 0 0 0.000000
3 308 2.172193762 2.00323351 7.0473296209 0 0 0 0 0 0 0.000000
