ITEM: TIMESTEP
0
ITEM: NUMBER OF ATOMS
309
ITEM: BOX BOUNDS pp pp pp
0.0 41.94482664
0.0 8.01293404
0.0 7.36034991
ITEM: ATOMS type id x y z SE CD SE_NF BC ZPE ZPE_NF BC_NF
1 1 29.7145357222 0.0 6.0679717059 0 0 0 0 0 0 0.000000
1 2 25.8615827572 0.0 5.0001311175 0 0 0 1.389981 0 0 0.000000
1 3 27.7866742896 2.00323351 5.5279673899 0 0 0 0 0 0 0.000000
1 4 21.9124913792 0.0 3.5245984799 0 0 0 0 0 0 0.000000
1 5 23.3613660087 0.0 5.7904350265 0 0 0 0 0 0 0.000000
1 6 24.0188909583 2.00323351 4.3746513023 0 0 0 0 0 0 0.000000
1 7 25.4395289359 2.00323351 6.3444803192 0 0 0 0 0 0 0.000000
1 8 21.8879761251 2.00323351 4.9480898927 0 0 0 0 0 0 0.000000
1 9 38.1598128227 0.0 5.5190119137 0 0 0 0 0 0 0.000000
1 10 40.0846627718 2.00323351 6.0465612978 0 0 0 0 0 0 0.000000
1 11 34.3182488656 0.0 4.4316591303 0 0 0 0 0 0 0.000000
1 12 35.8479410303 0.0 6.340871106 0 0 0 0 0 0 0.000000
1 13 36.2338473566 2.00323351 4.9793400732 0 0 0 0 0 0 0.000000
1 14 30.4802658201 0.0 3.3461969848 0 0 0 0 0 0 0.000000
1 15 32.0184783405 0.0 5.2492665906 0 0 0 0 0 0 0.000000
1 16 32.3982791643 2.00323351 3.8878538778 0 0 0 0 0 0 0.000000
1 17 33.9299267055 2.00323351 5.7970804967 0 0 0 0 0 0 0.000000
1 18 26.6543786041 0.0 2.25044698 0 0 0 0 0 0 0.000000
1 19 28.1761192955 0.0 4.1669646238 0 0 0 0 0 0 0.000000
1 20 28.5676397851 2.00323351 2.7969530958 0 0 0 0 0 0 0.000000
1 21 30.1000776597 2.00323351 4.7062873965 0 0 0 0 0 0 0.000000
1 22 23.0864703686 0.0 1.2709581338 0 0 0 0 0 0 0.000000
1 23 24.3936491071 0.0 3.1240251813 0 0 0 0 0 0 0.000000
1 24 24.6863995541 2.00323351 1.7289171621 0 0 0 0 0 0 0.000000
1 25 26.2735207792 2.00323351 3.61414209 0 0 0 0 0 0 0.000000
1 26 21.6083027929 2.00323351 2.1054112226 0 0 0 0 0 0 0.000000
1 27 38.9216395169 0.0 2.8031817813 0 0 0 0 0 0 0.000000
1 28 40.5091188637 0.0 4.7017262635 0 0 0 0 0 0 0.000000
1 29 40.8051807979 2.00323351 3.3791503744 0 0 0 0 0 0 0.000000
1 30 35.0803524753 0.0 1.7093189254 0 0 0 0 0 0 0.000000
1 31 36.6202585532 0.0 3.6155416397 0 0 0 0 0 0 0.000000
1 32 36.9915993015 2.00323351 2.2559772149 0 0 0 0 0 0 0.000000
1 33 38.5337323338 2.00323351 4.1622280096 0 0 0 0 0 0 0.000000
1 34 31.2525441822 0.0 0.6159771893 0 0 0 0 0 0 0.000000
1 35 32.7773420968 0.0 2.5264445925 0 0 0 0 0 0 0.000000
1 36 33.1692779002 2.00323351 1.1602966895 0 0 0 0 0 0 0.000000
1 37 34.6954271261 2.00323351 3.0703588261 0 0 0 0 0 0 0.000000
1 38 27.4142932811 0.0 6.8853830049 0 0 0 0 0 0 0.000000
1 39 28.9560893504 0.0 1.4303186143 0 0 0 0 0 0 0.000000
1 40 29.328300988 2.00323351 0.0715638765 0 0 0 0 0 0 0.000000
1 41 30.8665039694 2.00323351 1.9771559966 0 0 0 0 0 0 0.000000
1 42 25.143735912 0.0 0.3062188612 0 0 0 0 0 0 0.000000
1 43 27.0259261624 2.00323351 0.883601249 0 0 0 0 0 0 0.000000
1 44 23.0614572688 2.00323351 7.2079661003 0 0 0 0 0 0 0.000000
1 45 39.6727193345 0.0 0.0711365535 0 0 0 0 0 0 0.000000
1 46 41.2574409358 0.0 1.9563654009 0 0 0 0 0 0 0.000000
1 47 41.5535625914 2.00323351 0.5615817013 0 0 0 0 0 0 0.000000
1 48 37.378710849 0.0 0.8899577152 0 0 0 0 0 0 0.000000
1 49 37.7700416697 2.00323351 6.8805076894 0 0 0 0 0 0 0.000000
1 50 39.2931225693 2.00323351 1.4360255503 0 0 0 0 0 0 0.000000
1 51 33.5498924987 0.0 7.1585948206 0 0 0 0 0 0 0.000000
1 52 35.4654336882 2.00323351 0.340291047 0 0 0 0 0 0 0.000000
1 53 31.6309783072 2.00323351 6.6151302499 0 0 0 0 0 0 0.000000
1 54 29.7145357222 4.00646702 6.0679717059 0 0 0 0 0 0 0.000000
1 55 25.8615827572 4.00646702 5.0001311175 0 0 0 0 0 0 0.000000
1 56 27.7866742896 6.00970053 5.5279673899 0 0 0 0 0 0 0.000000
1 57 21.9124913792 4.00646702 3.5245984799 0 0 0 0 0 0 0.000000
1 58 23.3613660087 4.00646702 5.7904350265 0 0 0 0 0 0 0.000000
1 59 24.0188909583 6.00970053 4.3746513023 0 0 0 0 0 0 0.000000
1 60 25.4395289359 6.00970053 6.3444803192 0 0 0 0 0 0 0.000000
1 61 21.8879761251 6.00970053 4.9480898927 0 0 0 0 0 0 0.000000
1 62 38.1598128227 4.00646702 5.5190119137 0 0 0 0 0 0 0.000000
1 63 40.0846627718 6.00970053 6.0465612978 0 0 0 0 0 0 0.000000
1 64 34.3182488656 4.00646702 4.4316591303 0 0 0 0 0 0 0.000000
1 65 35.8479410303 4.00646702 6.340871106 0 0 0 0 0 0 0.000000
1 66 36.2338473566 6.00970053 4.9793400732 0 0 0 0 0 0 0.000000
1 67 30.4802658201 4.00646702 3.3461969848 0 0 0 0 0 0 0.000000
1 68 32.0184783405 4.00646702 5.2492665906 0 0 0 0 0 0 0.000000
1 69 32.3982791643 6.00970053 3.8878538778 0 0 0 0 0 0 0.000000
1 70 33.9299267055 6.00970053 5.7970804967 0 0 0 0 0 0 0.000000
1 71 26.6543786041 4.00646702 2.25044698 0 0 0 0 0 0 0.000000
1 72 28.1761192955 4.00646702 4.1669646238 0 0 0 0 0 0 0.000000
1 73 28.5676397851 6.00970053 2.7969530958 0 0 0 0 0 0 0.000000
1 74 30.1000776597 6.00970053 4.7062873965 0 0 0 0 0 0 0.000000
1 75 23.0864703686 4.00646702 1.2709581338 0 0 0 0 0 0 0.000000
1 76 24.3936491071 4.00646702 3.1240251813 0 0 0 0 0 0 0.000000
1 77 24.6863995541 6.00970053 1.7289171621 0 0 0 0 0 0 0.000000
1 78 26.2735207792 6.00970053 3.61414209 0 0 0 0 0 0 0.000000
1 79 21.6083027929 6.00970053 2.1054112226 0 0 0 0 0 0 0.000000
1 80 38.9216395169 4.00646702 2.8031817813 0 0 0 0 0 0 0.000000
1 81 40.5091188637 4.00646702 4.7017262635 0 0 0 0 0 0 0.000000
1 82 40.8051807979 6.00970053 3.3791503744 0 0 0 0 0 0 0.000000
1 83 35.0803524753 4.00646702 1.7093189254 0 0 0 0 0 0 0.000000
1 84 36.6202585532 4.00646702 3.6155416397 0 0 0 0 0 0 0.000000
1 85 36.9915993015 6.00970053 2.2559772149 0 0 0 0 0 0 0.000000
1 86 38.5337323338 6.00970053 4.1622280096 0 0 0 0 0 0 0.000000
1 87 31.2525441822 4.00646702 0.6159771893 0 0 0 0 0 0 0.000000
1 88 32.7773420968 4.00646702 2.5264445925 0 0 0 0 0 0 0.000000
1 89 33.1692779002 6.00970053 1.1602966895 0 0 0 0 0 0 0.000000
1 90 34.6954271261 6.00970053 3.0703588261 0 0 0 0 0 0 0.000000
1 91 27.4142932811 4.00646702 6.8853830049 0 0 0 0 0 0 0.000000
1 92 28.9560893504 4.00646702 1.4303186143 0 0 0 0 0 0 0.000000
1 93 29.328300988 6.00970053 0.0715638765 0 0 0 0 0 0 0.000000
1 94 30.8665039694 6.00970053 1.9771559966 0 0 0 0 0 0 0.000000
1 95 25.143735912 4.00646702 0.3062188612 0 0 0 0 0 0 0.000000
1 96 27.0259261624 6.00970053 0.883601249 0 0 0 0 0 0 0.000000
1 97 20.9574226267 4.00646702 0.6892432024 0 0 0 0 0 0 0.000000
1 98 23.0614572688 6.00970053 7.2079661003 0 0 0 0 0 0 0.000000
1 99 39.6727193345 4.00646702 0.0711365535 0 0 0 0 0 0 0.000000
1 100 41.2574409358 4.00646702 1.9563654009 0 0 0 0 0 0 0.000000
1 101 41.5535625914 6.00970053 0.5615817013 0 0 0 0 0 0 0.000000
1 102 37.378710849 4.00646702 0.8899577152 0 0 0 0 0 0 0.000000
1 103 37.7700416697 6.00970053 6.8805076894 0 0 0 0 0 0 0.000000
1 104 39.2931225693 6.00970053 1.4360255503 0 0 0 0 0 0 0.000000
1 105 33.5498924987 4.00646702 7.1585948206 0 0 0 0 0 0 0.000000
1 106 35.4654336882 6.00970053 0.340291047 0 0 0 0 0 0 0.000000
1 107 31.6309783072 6.00970053 6.6151302499 0 0 0 0 0 0 0.000000
1 108 20.2850276258 0.0 5.4039845091 0 0 0 0 0 0 0.000000
1 109 16.406297539 0.0 6.4703921848 0 0 0 0 0 0 0.000000
1 110 18.7003060145 0.0 7.2892133565 0 0 0 0 0 0 0.000000
1 111 18.3207092493 2.00323351 5.9243243597 0 0 0 0 0 0 0.000000
1 112 20.5811492714 2.00323351 6.7987682087 0 0 0 0 0 0 0.000000
1 113 12.5774791887 0.0 0.2017550794 0 0 0 0 0 0 0.000000
1 114 14.4930203682 2.00323351 7.020058863 0 0 0 0 0 0 0.000000
1 115 16.7976283597 2.00323351 0.4798422106 0 0 0 0 0 0 0.000000
1 116 19.5367055537 0.0 2.6586236365 0 0 0 0 0 0 0.000000
1 117 15.6478452432 0.0 3.7448082603 0 0 0 0 0 0 0.000000
1 118 17.9492261969 0.0 4.5571681287 0 0 0 0 0 0 0.000000
1 119 17.5613190138 2.00323351 3.1981219004 0 0 0 0 0 0 0.000000
1 120 19.8327674879 2.00323351 3.9811995356 0 0 0 0 0 0 0.000000
1 121 11.8049287868 0.0 4.8339053175 0 0 0 0 0 0 0.000000
1 122 14.1079391553 0.0 5.6510309846 0 0 0 0 0 0 0.000000
1 123 13.7230138061 2.00323351 4.2899910839 0 0 0 0 0 0 0.000000
1 124 16.0191859915 2.00323351 5.1043726851 0 0 0 0 0 0 0.000000
1 125 7.9836760304 0.0 5.9300312957 0 0 0 0 0 0 0.000000
1 126 10.2801308622 0.0 6.7443727207 0 0 0 0 0 0 0.000000
1 127 9.8940906494 2.00323351 5.3831939134 0 0 0 0 0 0 0.000000
1 128 12.1968645902 2.00323351 6.2000532105 0 0 0 0 0 0 0.000000
1 129 4.171322592 0.0 7.0541310488 0 0 0 0 0 0 0.000000
1 130 6.4418799611 0.0 0.4749668951 0 0 0 0 0 0 0.000000
1 131 6.0535128424 2.00323351 6.476748651 0 0 0 0 0 0 0.000000
1 132 8.355887678 2.00323351 7.2887860335 0 0 0 0 0 0 0.000000
1 133 2.0890439488 2.00323351 0.1523837997 0 0 0 0 0 0 0.000000
1 134 14.8755277103 0.0 1.019478794 0 0 0 0 0 0 0.000000
1 135 17.1873995027 0.0 1.8413379963 0 0 0 0 0 0 0.000000
1 136 19.1122494518 2.00323351 1.3137886022 0 0 0 0 0 0 0.000000
1 137 11.0460650205 0.0 2.1110833194 0 0 0 0 0 0 0.000000
1 138 13.3458355456 0.0 2.9286907797 0 0 0 0 0 0 0.000000
1 139 12.9575133955 2.00323351 1.5632694133 0 0 0 0 0 0 0.000000
1 140 15.2614340366 2.00323351 2.3810098268 0 0 0 0 0 0 0.000000
1 141 7.2037059755 0.0 3.1933852862 0 0 0 0 0 0 0.000000
1 142 9.5078525101 0.0 4.0141529252 0 0 0 0 0 0 0.000000
1 143 9.1276643497 2.00323351 2.6540625035 0 0 0 0 0 0 0.000000
1 144 11.4258658443 2.00323351 3.4724960322 0 0 0 0 0 0 0.000000
1 145 3.4212357871 0.0 4.2363247287 0 0 0 0 0 0 0.000000
1 146 5.6819652941 0.0 5.10990292 0 0 0 0 0 0 0.000000
1 147 5.3011074692 2.00323351 3.74620781 0 0 0 0 0 0 0.000000
1 148 7.5952264651 2.00323351 4.5633968142 0 0 0 0 0 0 0.000000
1 149 2.1140570586 0.0 6.0893917662 0 0 0 0 0 0 0.000000
1 150 0.6358894829 2.00323351 5.2549386874 0 0 0 0 0 0 0.000000
1 151 3.7139862341 2.00323351 5.6314327479 0 0 0 0 0 0 0.000000
1 152 8.7421224122 0.0 1.2923781941 0 0 0 0 0 0 0.000000
1 153 10.6585649872 2.00323351 0.7452196601 0 0 0 0 0 0 0.000000
1 154 2.3889526887 0.0 1.5699148835 0 0 0 0 0 0 0.000000
1 155 4.8891694472 0.0 2.3602187825 0 0 0 0 0 0 0.000000
1 156 4.4671156259 2.00323351 1.0158695808 0 0 0 0 0 0 0.000000
1 157 6.8142609696 2.00323351 1.8323825201 0 0 0 0 0 0 0.000000
1 158 0.9400780692 0.0 3.8357514301 0 0 0 0 0 0 0.000000
1 159 0.9155628051 2.00323351 2.4122600173 0 0 0 0 0 0 0.000000
1 160 3.0464776383 2.00323351 2.9856986077 0 0 0 0 0 0 0.000000
1 161 20.2850276258 4.00646702 5.4039845091 0 0 0 0 0 0 0.000000
1 162 16.406297539 4.00646702 6.4703921848 0 0 0 0 0 0 0.000000
1 163 18.7003060145 4.00646702 7.2892133565 0 0 0 0 0 0 0.000000
1 164 18.3207092493 6.00970053 5.9243243597 0 0 0 0 0 0 0.000000
1 165 20.5811492714 6.00970053 6.7987682087 0 0 0 0 0 0 0.000000
1 166 12.5774791887 4.00646702 0.2017550794 0 0 0 0 0 0 0.000000
1 167 14.4930203682 6.00970053 7.020058863 0 0 0 0 0 0 0.000000
1 168 16.7976283597 6.00970053 0.4798422106 0 0 0 0 0 0 0.000000
1 169 19.5367055537 4.00646702 2.6586236365 0 0 0 0 0 0 0.000000
1 170 15.6478452432 4.00646702 3.7448082603 0 0 0 0 0 0 0.000000
1 171 17.9492261969 4.00646702 4.5571681287 0 0 0 0 0 0 0.000000
1 172 17.5613190138 6.00970053 3.1981219004 0 0 0 0 0 0 0.000000
1 173 19.8327674879 6.00970053 3.9811995356 0 0 0 0 0 0 0.000000
1 174 11.8049287868 4.00646702 4.8339053175 0 0 0 0 0 0 0.000000
1 175 14.1079391553 4.00646702 5.6510309846 0 0 0 0 0 0 0.000000
1 176 13.7230138061 6.00970053 4.2899910839 0 0 0 0 0 0 0.000000
1 177 16.0191859915 6.00970053 5.1043726851 0 0 0 0 0 0 0.000000
1 178 7.9836760304 4.00646702 5.9300312957 0 0 0 0 0 0 0.000000
1 179 10.2801308622 4.00646702 6.7443727207 0 0 0 0 0 0 0.000000
1 180 9.8940906494 6.00970053 5.3831939134 0 0 0 0 0 0 0.000000
1 181 12.1968645902 6.00970053 6.2000532105 0 0 0 0 0 0 0.000000
1 182 4.171322592 4.00646702 7.0541310488 0 0 0 0 0 0 0.000000
1 183 6.4418799611 4.00646702 0.4749668951 0 0 0 0 0 0 0.000000
1 184 6.0535128424 6.00970053 6.476748651 0 0 0 0 0 0 0.000000
1 185 8.355887678 6.00970053 7.2887860335 0 0 0 0 0 0 0.000000
1 186 2.0890439488 6.00970053 0.1523837997 0 0 0 0 0 0 0.000000
1 187 14.8755277103 4.00646702 1.019478794 0 0 0 0 0 0 0.000000
1 188 17.1873995027 4.00646702 1.8413379963 0 0 0 0 0 0 0.000000
1 189 19.1122494518 6.00970053 1.3137886022 0 0 0 0 0 0 0.000000
1 190 11.0460650205 4.00646702 2.1110833194 0 0 0 0 0 0 0.000000
1 191 13.3458355456 4.00646702 2.9286907797 0 0 0 0 0 0 0.000000
1 192 12.9575133955 6.00970053 1.5632694133 0 0 0 0 0 0 0.000000
1 193 15.2614340366 6.00970053 2.3810098268 0 0 0 0 0 0 0.000000
1 194 7.2037059755 4.00646702 3.1933852862 0 0 0 0 0 0 0.000000
1 195 9.5078525101 4.00646702 4.0141529252 0 0 0 0 0 0 0.000000
1 196 9.1276643497 6.00970053 2.6540625035 0 0 0 0 0 0 0.000000
1 197 11.4258658443 6.00970053 3.4724960322 0 0 0 0 0 0 0.000000
1 198 3.4212357871 4.00646702 4.2363247287 0 0 0 0 0 0 0.000000
1 199 5.6819652941 4.00646702 5.10990292 0 0 0 0 0 0 0.000000
1 200 5.3011074692 6.00970053 3.74620781 0 0 0 0 0 0 0.000000
1 201 7.5952264651 6.00970053 4.5633968142 0 0 0 0 0 0 0.000000
1 202 2.1140570586 4.00646702 6.0893917662 0 0 0 0 0 0 0.000000
1 203 0.6358894829 6.00970053 5.2549386874 0 0 0 0 0 0 0.000000
1 204 3.7139862341 6.00970053 5.6314327479 0 0 0 0 0 0 0.000000
1 205 8.7421224122 4.00646702 1.2923781941 0 0 0 0 0 0 0.000000
1 206 10.6585649872 6.00970053 0.7452196601 0 0 0 0 0 0 0.000000
1 207 2.3889526887 4.00646702 1.5699148835 0 0 0 0 0 0 0.000000
1 208 4.8891694472 4.00646702 2.3602187825 0 0 0 0 0 0 0.000000
1 209 4.4671156259 6.00970053 1.0158695808 0 0 0 0 0 0 0.000000
1 210 6.8142609696 6.00970053 1.8323825201 0 0 0 0 0 0 0.000000
1 211 0.9400780692 4.00646702 3.8357514301 0 0 0 0 0 0 0.000000
1 212 0.9155628051 6.00970053 2.4122600173 0 0 0 0 0 0 0.000000
1 213 3.0464776383 6.00970053 2.9856986077 0 0 0 0 0 0 0.000000
1 214 41.9298359467 4.00646702 6.6711067076 0 0 0 0 0 0 0.000000
1 215 20.9574226267 0.0 0.6892432024 0 0 0 0 0 0 0.000000
1 216 41.9298359467 0.0 6.6711067076 0 0 0 0 0 0 0.000000
2 217 20.11 1.49 2.47 0.35061400 715.22525884 0.11641400 1.408458 0.262485 0.188948 1.369411
2 218 20.11 2.5 2.47 0.35061400 716.43316322 0.11671400 1.407590 0.262280 0.190971 1.372875
2 219 20.11 5.5 2.47 0.35061400 715.00748114 0.11641400 1.409051 0.262398 0.188513 1.368846
2 220 20.11 6.51 2.47 0.35061400 715.68638794 0.11661400 1.408397 0.262551 0.188927 1.369346
2 221 20.34 1.05 1.74 0.37101400 721.50123302 0.13051400 1.411613 0.261081 0.182856 1.371373
2 222 20.34 5.06 1.74 0.37101400 721.63047272 0.13071400 1.410611 0.261823 0.182071 1.370784
2 223 20.73 1.01 3.05 0.33211400 709.53503990 0.14351400 1.413724 0.256440 0.213791 1.410411
2 224 20.73 2.98 3.05 0.33211400 709.30294515 0.14291400 1.413728 0.256480 0.213570 1.411833
2 225 20.73 5.02 3.05 0.33211400 709.26201479 0.14321400 1.413738 0.256423 0.213491 1.410222
2 226 20.73 6.99 3.05 0.33211400 709.28671050 0.14411400 1.413725 0.256609 0.213880 1.408007
2 227 21.03 0.48 2.24 0.31421400 711.83551794 0.12111400 1.380643 0.250207 0.193426 1.390667
2 228 21.03 3.52 2.24 0.31421400 712.04784065 0.12001400 1.381758 0.247825 0.191256 1.391879
2 229 21.03 4.49 2.24 0.31421400 711.86438975 0.12091400 1.381713 0.250584 0.193843 1.389550
2 230 21.03 7.52 2.24 0.31421400 711.43535574 0.12071400 1.381317 0.250132 0.192548 1.392298
2 231 21.67 1.47 0.54965009 0.22091400 671.62489746 0.01941400 1.390148 0.235720 0.192049 1.390589
2 232 21.67 2.53 0.54965009 0.22091400 671.67670829 0.01911400 1.389081 0.236161 0.191829 1.389744
2 233 21.67 5.48 0.54965009 0.22091400 672.42550473 0.01981400 1.387934 0.235946 0.191556 1.390656
2 234 21.67 6.53 0.54965009 0.22091400 671.76680577 0.01951400 1.390664 0.235971 0.193033 1.389752
2 235 21.88 0.35 5.14 0.17221400 615.38501096 0.01391400 1.367661 0.231724 0.195516 0.000000
2 236 21.88 3.64 5.14 0.17221400 616.84346559 0.01401400 1.369305 0.233606 0.195386 1.362660
2 237 21.88 4.36 5.14 0.17221400 616.01961781 0.01551400 1.368866 0.231606 0.195929 1.355184
2 238 21.88 7.65 5.14 0.17221400 616.90010537 0.01501400 1.368135 0.233990 0.195722 1.359084
2 239 22.06 2.84 0.79965009 0.22091400 693.90524046 0.01911400 1.390620 0.235322 0.191756 1.389503
2 240 22.06 5.17 0.79965009 0.22091400 693.61670028 0.01941400 1.389696 0.235311 0.188225 0.000000
2 241 22.06 6.84 0.79965009 0.22091400 693.46475140 0.01901400 1.389480 0.235231 0.191946 1.390948
2 242 22.35 0.42 7.12 0.03961400 542.89409737 -0.03638600 1.313190 0.179937 0.163535 0.000000
2 243 22.35 3.57 7.12 0.03951400 544.01592882 -0.03578600 1.311766 0.177537 0.163221 1.307586
2 244 22.35 4.43 7.12 0.03951400 543.09351313 -0.03648600 1.312298 0.177050 0.163470 1.305940
2 245 22.35 7.58 7.12 0.03951400 543.83804672 -0.03578600 1.312117 0.178069 0.163311 1.307239
2 246 22.62 1.57 3.44 0.03531400 542.85357353 -0.03598600 1.311573 0.178206 0.162877 1.315348
2 247 22.62 5.58 3.44 0.03531400 542.79223695 -0.03648600 1.309965 0.174574 0.162222 1.313785
2 248 22.62 6.43 3.44 0.03531400 542.27197263 -0.03618600 1.309567 0.174434 0.162931 1.314763
2 249 22.9 0.83 4.48 0.21521400 692.49264222 0.01831400 1.397483 0.233906 0.191823 1.389389
2 250 22.9 3.16 4.48 0.21521400 693.82794218 0.01861400 1.397600 0.234495 0.191973 1.389490
2 251 22.9 4.84 4.48 0.21521400 692.57785810 0.01831400 1.398815 0.236746 0.190159 1.390561
2 252 22.9 7.17 4.48 0.21521400 693.59669949 0.01831400 1.398281 0.234473 0.191552 1.389512
2 253 23.09 1.64 1.45965009 0.17281400 617.31065284 0.01451400 1.370688 0.231932 0.195519 1.361499
2 254 23.09 2.36 1.45965009 0.17281400 617.45408575 0.01391400 1.370880 0.232656 0.195264 1.364543
2 255 23.09 5.65 1.45965009 0.17281400 617.00055410 0.01361400 1.369555 0.233732 0.195829 1.366034
2 256 23.09 6.36 1.45965009 0.17281400 616.68158635 0.01401400 1.368112 0.233822 0.195772 1.364389
2 257 23.29 0.52 4.23 0.21521400 667.84973802 0.01851400 1.397502 0.232111 0.191495 1.390440
2 258 23.29 3.47 4.23 0.21521400 667.03854792 0.01861400 1.398526 0.239858 0.191944 1.389393
2 259 23.29 4.53 4.23 0.21521400 668.08491961 0.01851400 1.397201 0.234311 0.190065 1.390323
2 260 23.29 7.48 4.23 0.21521400 667.47271079 0.01861400 1.397916 0.234344 0.190819 0.000000
2 261 23.94 1.51 5.92 0.31121400 710.62362274 0.12131400 1.385123 0.249012 0.194863 1.387982
2 262 23.94 2.49 5.92 0.31121400 710.41019595 0.12141400 1.384150 0.249983 0.194315 1.387376
2 263 23.94 5.52 5.92 0.31111400 710.69300371 0.12111400 1.385167 0.249595 0.194092 1.385673
2 264 23.94 6.49 5.92 0.31121400 710.57759022 0.12171400 1.384713 0.251848 0.194502 1.388533
2 265 24.23 0.98 6.74 0.32691400 705.38499266 0.14331400 1.416544 0.255825 0.213131 1.405832
2 266 24.23 3.02 6.74 0.32691400 705.61220264 0.14461400 1.417002 0.256059 0.213574 1.407544
2 267 24.23 4.98 6.74 0.32691400 705.06781624 0.14421400 1.417665 0.255619 0.212919 1.408175
2 268 24.23 7.02 6.74 0.32691400 705.38998074 0.14451400 1.417228 0.256232 0.213525 1.407270
2 269 24.62 0.94 5.43 0.36631400 719.40222146 0.13001400 1.410240 0.260021 0.182877 1.373485
2 270 24.62 3.06 5.43 0.36631400 720.38919699 0.12921400 1.410663 0.260243 0.180643 1.374877
2 271 24.62 4.95 5.43 0.36631400 720.07752402 0.12981400 1.410946 0.260467 0.181823 1.371764
2 272 24.62 7.06 5.43 0.36631400 718.93165734 0.13191400 1.409649 0.260276 0.177304 1.377444
2 273 24.85 0.5 6.15 0.34471400 714.17462205 0.11571400 1.404519 0.261578 0.190219 1.372476
2 274 24.85 3.49 6.15 0.34471400 712.48032875 0.11591400 1.403742 0.261610 0.189004 1.369203
2 275 24.85 4.51 6.15 0.34471400 714.03014671 0.11591400 1.404769 0.261465 0.188211 1.369517
2 276 24.85 7.5 6.15 0.34471400 712.40633060 0.11571400 1.403734 0.261611 0.189707 0.000000
2 277 21.71 0.57 6.44 -0.08088600 506.27973044 -0.13178600 1.321674 0.145071 0.144110 1.328383
2 278 21.71 3.43 6.44 -0.08088600 506.70541799 -0.13208600 1.320851 0.144445 0.144135 1.328797
2 279 21.71 4.57 6.44 -0.08088600 505.10888515 -0.13198600 1.321743 0.144129 0.143865 1.327779
2 280 21.71 7.44 6.44 -0.08088600 506.69017031 -0.13238600 1.320789 0.144824 0.145035 0.000000
2 281 21.74 0.71 6.23 -0.08088600 524.95823686 -0.13158600 1.321823 0.143062 0.143482 1.326909
2 282 21.74 3.28 6.23 -0.08088600 527.82635443 -0.13168600 1.321846 0.144105 0.143729 1.327817
2 283 21.74 4.72 6.23 -0.08088600 526.08917177 -0.13208600 1.322146 0.144060 0.143954 1.327074
2 284 21.74 7.29 6.23 -0.08088600 527.72816914 -0.13218600 1.321096 0.144189 0.144664 1.329594
2 285 21.88 0.71 6.62 -0.08088600 517.29122838 -0.13208600 1.321677 0.145610 0.144217 1.328429
2 286 21.88 3.29 6.62 -0.08088600 516.48557572 -0.13288600 1.321422 0.144364 0.144328 0.000000
2 287 21.88 4.71 6.62 -0.08088600 516.49913848 -0.13238600 1.321471 0.144566 0.143419 1.331144
2 288 21.88 7.3 6.62 0.14811400 516.94841760 -0.13248600 1.312984 0.132233 0.143424 1.329344
2 289 21.92 0.9 6.36 -0.08088600 543.70265043 -0.13248600 1.321622 0.143367 0.144101 1.328346
2 290 21.92 3.1 6.36 -0.08088600 544.35154277 0.55021400 1.321011 0.143030 0.143225 1.328498
2 291 21.92 4.91 6.36 -0.08088600 544.20940541 -0.13278600 1.320961 0.144334 0.144137 1.327972
2 292 21.92 7.1 6.36 -0.08088600 546.35955245 -0.13218600 1.321788 0.144410 0.144570 1.329143
2 293 22.62 2.43 3.44 0.03531400 542.18767383 -0.03668600 1.310437 0.175946 0.163094 1.316253
2 294 23.04 1.1 2.68 -0.08278600 543.45068407 -0.13238600 1.321845 0.145221 0.144357 1.332948
2 295 23.04 2.9 2.68 -0.08278600 541.96508694 -0.13188600 1.323079 0.144192 0.145225 1.333293
2 296 23.04 5.11 2.68 -0.08278600 542.63568802 -0.13278600 1.323391 0.144316 0.144202 1.331777
2 297 23.04 6.9 2.68 -0.08278600 540.49291336 -0.13288600 1.321885 0.143812 0.144440 1.332589
2 298 23.09 1.29 2.94 0.14811400 514.89788598 -0.13298600 1.313676 0.134369 0.144641 1.330037
2 299 23.09 2.71 2.94 -0.08278600 514.35341824 -0.13288600 1.321511 0.144938 0.144553 1.331705
2 300 23.09 5.3 2.94 0.14811400 514.90782131 -0.13218600 1.315763 0.126169 0.143715 0.000000
2 301 23.09 6.71 2.94 0.12081400 514.74047556 -0.13288600 1.324039 0.141935 0.144770 1.331741
2 302 23.22 1.28 2.56 -0.08278600 525.89920814 -0.13218600 1.323247 0.144511 0.144553 1.332595
2 303 23.22 2.71 2.56 -0.08278600 523.22825657 -0.13168600 1.320684 0.144538 0.144138 1.332207
2 304 23.22 5.29 2.56 -0.08278600 525.41134388 -0.13208600 1.321598 0.143982 0.144736 1.331981
2 305 23.22 6.72 2.56 -0.08278600 523.81427737 -0.13278600 1.320705 0.145584 0.144705 1.331828
2 306 23.25 1.43 2.77 -0.08278600 504.35102692 -0.13288600 1.321082 0.145788 0.144459 1.331343
2 307 23.25 2.57 2.77 -0.08278600 504.00352700 -0.13248600 1.322951 0.144354 0.144409 1.331854
2 308 23.25 5.43 2.77 -0.08278600 504.30821060 -0.13178600 1.321907 0.143575 0.144654 1.332971
2 309 23.25 6.58 2.77 -0.08278600 504.18971642 -0.13208600 1.323277 0.144653 0.144379 1.333465
