ITEM: TIMESTEP
0
ITEM: NUMBER OF ATOMS
311
ITEM: BOX BOUNDS pp pp pp
0.0 41.63642664
0.0 8.01293404
0.0 7.36034991
ITEM: ATOMS type id x y z SE CD SE_NF BC ZPE ZPE_NF BC_NF
1 1 29.3416668923 2.7846568495e-04 6.0963498747 0 0 0 0 0 0 0.000000
1 2 25.5147977862 0.0019319922 5.0303244122 0 0 0 1.388793 0 0 0.000000
1 3 27.4325652211 2.00323351 5.5529140828 0 0 0 0 0 0 0.000000
1 4 21.5963601438 8.00254549 3.5348437374 0 0 0 0 0 0 0.000000
1 5 23.0143950187 8.0097845395 5.8083393485 0 0 0 0 0 0 0.000000
1 6 23.7051755829 2.00323351 4.3870972099 0 0 0 0 0 0 0.000000
1 7 25.0901189399 2.00323351 6.3672149612 0 0 0 0 0 0 0.000000
1 8 21.5792197778 2.00323351 4.9171107365 0 0 0 0 0 0 0.000000
1 9 37.7273821427 1.315922708e-05 5.5294851652 0 0 0 0 0 0 0.000000
1 10 39.6427863157 2.00323351 6.0512742862 0 0 0 0 0 0 0.000000
1 11 33.9127828419 4.4774345e-06 4.4536720152 0 0 0 0 0 0 0.000000
1 12 35.4312806385 1.843254266e-05 6.3569585919 0 0 0 0 0 0 0.000000
1 13 35.8133521298 2.00323351 4.9953530255 0 0 0 0 0 0 0.000000
1 14 30.1043215855 2.2222771422e-04 3.3716570671 0 0 0 0 0 0 0.000000
1 15 31.6285971199 1.986288659e-04 5.2768646969 0 0 0 0 0 0 0.000000
1 16 32.0079562185 2.00323351 3.9116302275 0 0 0 0 0 0 0.000000
1 17 33.5264349071 2.00323351 5.8197807127 0 0 0 0 0 0 0.000000
1 18 26.3004000327 5.9508815095e-04 2.2679139006 0 0 0 0 0 0 0.000000
1 19 27.81589146 8.0120980509 4.1910663556 0 0 0 0 0 0 0.000000
1 20 28.2053752239 2.00323351 2.8212391012 0 0 0 0 0 0 0.000000
1 21 29.7261468468 2.00323351 4.7318065948 0 0 0 0 0 0 0.000000
1 22 22.7631983691 7.9843386135 1.3324082878 0 0 0 0 0 0 0.000000
1 23 24.0704530733 0.00416159 3.154982589 0 0 0 0 0 0 0.000000
1 24 24.333594165 2.00323351 1.7438742105 0 0 0 0 0 0 0.000000
1 25 25.9398429655 2.00323351 3.6422770145 0 0 0 0 0 0 0.000000
1 26 21.329598018 2.00323351 2.120779784 0 0 0 0 0 0 0.000000
1 27 38.4836482806 8.0117317693 2.8148687751 0 0 0 0 0 0 0.000000
1 28 40.0639802724 0.0010903229 4.7100991694 0 0 0 0 0 0 0.000000
1 29 40.3482993693 2.00323351 3.3824414645 0 0 0 0 0 0 0.000000
1 30 34.6705538857 8.0128208102 1.7274181666 0 0 0 0 0 0 0.000000
1 31 36.1971101101 8.0125456949 3.631866392 0 0 0 0 0 0 0.000000
1 32 36.5642102546 2.00323351 2.2704437974 0 0 0 0 0 0 0.000000
1 33 38.0947920924 2.00323351 4.1750169131 0 0 0 0 0 0 0.000000
1 34 30.8683911769 9.628636359e-05 0.6415842082 0 0 0 0 0 0 0.000000
1 35 32.3842317449 1.143604993e-05 2.5499192675 0 0 0 0 0 0 0.000000
1 36 32.7729597382 2.00323351 1.1840859452 0 0 0 0 0 0 0.000000
1 37 34.2875180152 2.00323351 3.08996518 0 0 0 0 0 0 0.000000
1 38 27.0556615802 1.8365528307e-04 6.9122544612 0 0 0 0 0 0 0.000000
1 39 28.5874132637 8.0126092337 1.4564343494 0 0 0 0 0 0 0.000000
1 40 28.9557604725 2.00323351 0.0985536149 0 0 0 0 0 0 0.000000
1 41 30.4860945738 2.00323351 2.0043439939 0 0 0 0 0 0 0.000000
1 42 24.7908276242 0.0037731887 0.3237450627 0 0 0 0 0 0 0.000000
1 43 26.6645170549 2.00323351 0.9074714462 0 0 0 0 0 0 0.000000
1 44 20.6585287063 0.0019509981 0.6802418939 0 0 0 0 0 0 0.000000
1 45 39.2290397265 5.6997880242e-04 0.0780896783 0 0 0 0 0 0 0.000000
1 46 40.7985628562 0.0027653305 1.9567544955 0 0 0 0 0 0 0.000000
1 47 41.0827328348 2.00323351 0.574669579 0 0 0 0 0 0 0.000000
1 48 36.950902413 8.495309381e-05 0.9037784996 0 0 0 0 0 0 0.000000
1 49 37.3403468904 2.00323351 6.892355337 0 0 0 0 0 0 0.000000
1 50 38.8422791365 2.00323351 1.4489282662 0 0 0 0 0 0 0.000000
1 51 33.1498217032 8.0126290252 7.1807118323 0 0 0 0 0 0 0.000000
1 52 35.0530775419 2.00323351 0.3594643902 0 0 0 0 0 0 0.000000
1 53 31.2419258632 2.00323351 6.6405984187 0 0 0 0 0 0 0.000000
1 54 29.3416668923 4.0061885543 6.0963498747 0 0 0 0 0 0 0.000000
1 55 25.5147977862 4.0045350278 5.0303244122 0 0 0 0 0 0 0.000000
1 56 27.4284614752 6.00970053 5.5538432385 0 0 0 0 0 0 0.000000
1 57 21.5963601438 4.01685557 3.5348437374 0 0 0 0 0 0 0.000000
1 58 23.0143950187 4.0096165205 5.8083393485 0 0 0 0 0 0 0.000000
1 59 23.6913934302 6.00970053 4.3876917067 0 0 0 0 0 0 0.000000
1 60 25.0917072515 6.00970053 6.3653432165 0 0 0 0 0 0 0.000000
1 61 21.5768947041 6.00970053 4.9585523482 0 0 0 0 0 0 0.000000
1 62 37.7273821427 4.0064538608 5.5294851652 0 0 0 0 0 0 0.000000
1 63 39.6383022945 6.00970053 6.0501661491 0 0 0 0 0 0 0.000000
1 64 33.9127828419 4.0064625426 4.4536720152 0 0 0 0 0 0 0.000000
1 65 35.4312806385 4.0064485875 6.3569585919 0 0 0 0 0 0 0.000000
1 66 35.812580944 6.00970053 4.9946437476 0 0 0 0 0 0 0.000000
1 67 30.1043215855 4.0062447923 3.3716570671 0 0 0 0 0 0 0.000000
1 68 31.6285971199 4.0062683911 5.2768646969 0 0 0 0 0 0 0.000000
1 69 32.006321408 6.00970053 3.9113831241 0 0 0 0 0 0 0.000000
1 70 33.524608764 6.00970053 5.8189749313 0 0 0 0 0 0 0.000000
1 71 26.3004000327 4.0058719318 2.2679139006 0 0 0 0 0 0 0.000000
1 72 27.81589146 4.0073030091 4.1910663556 0 0 0 0 0 0 0.000000
1 73 28.2041848108 6.00970053 2.8217191915 0 0 0 0 0 0 0.000000
1 74 29.7243246869 6.00970053 4.7317435219 0 0 0 0 0 0 0.000000
1 75 22.7631983691 4.0350624465 1.3324082878 0 0 0 0 0 0 0.000000
1 76 24.0704530733 4.00230543 3.154982589 0 0 0 0 0 0 0.000000
1 77 24.3482831176 6.00970053 1.7512480447 0 0 0 0 0 0 0.000000
1 78 25.9316818088 6.00970053 3.6379624778 0 0 0 0 0 0 0.000000
1 79 21.2824434237 6.00970053 2.1065406454 0 0 0 0 0 0 0.000000
1 80 38.4836482806 4.0076692907 2.8148687751 0 0 0 0 0 0 0.000000
1 81 40.0639802724 4.0053766971 4.7100991694 0 0 0 0 0 0 0.000000
1 82 40.3528605752 6.00970053 3.3813798884 0 0 0 0 0 0 0.000000
1 83 34.6705538857 4.0065802498 1.7274181666 0 0 0 0 0 0 0.000000
1 84 36.1971101101 4.0068553651 3.631866392 0 0 0 0 0 0 0.000000
1 85 36.5673091938 6.00970053 2.2686844715 0 0 0 0 0 0 0.000000
1 86 38.0968413487 6.00970053 4.1726283851 0 0 0 0 0 0 0.000000
1 87 30.8683911769 4.0063707336 0.6415842082 0 0 0 0 0 0 0.000000
1 88 32.3842317449 4.006455584 2.5499192675 0 0 0 0 0 0 0.000000
1 89 32.7722652193 6.00970053 1.1840997457 0 0 0 0 0 0 0.000000
1 90 34.2878472155 6.00970053 3.0892102411 0 0 0 0 0 0 0.000000
1 91 27.0556615802 4.0062833647 6.9122544612 0 0 0 0 0 0 0.000000
1 92 28.5874132637 4.0067918263 1.4564343494 0 0 0 0 0 0 0.000000
1 93 28.9561440896 6.00970053 0.0970849929 0 0 0 0 0 0 0.000000
1 94 30.4854164153 6.00970053 2.004814535 0 0 0 0 0 0 0.000000
1 95 24.7908276242 4.0026938313 0.3237450627 0 0 0 0 0 0 0.000000
1 96 26.6678612689 6.00970053 0.9059540618 0 0 0 0 0 0 0.000000
1 97 20.6585287063 4.0045160219 0.6802418939 0 0 0 0 0 0 0.000000
1 98 22.736221884 6.00970053 7.2266044362 0 0 0 0 0 0 0.000000
1 99 39.2290397265 4.0058970412 0.0780896783 0 0 0 0 0 0 0.000000
1 100 40.7985628562 4.0037016895 1.9567544955 0 0 0 0 0 0 0.000000
1 101 41.0950896839 6.00970053 0.5615567541 0 0 0 0 0 0 0.000000
1 102 36.950902413 4.0063820669 0.9037784996 0 0 0 0 0 0 0.000000
1 103 37.3398192845 6.00970053 6.8929745795 0 0 0 0 0 0 0.000000
1 104 38.8508636978 6.00970053 1.44421703 0 0 0 0 0 0 0.000000
1 105 33.1498217032 4.0067720348 7.1807118323 0 0 0 0 0 0 0.000000
1 106 35.0524441944 6.00970053 0.3586442539 0 0 0 0 0 0 0.000000
1 107 31.2412679397 6.00970053 6.6405065343 0 0 0 0 0 0 0.000000
1 108 19.9803495462 0.0027653305 5.4035954145 0 0 0 0 0 0 0.000000
1 109 16.132689103 8.495309381e-05 6.4565714004 0 0 0 0 0 0 0.000000
1 110 18.4108264065 5.6997880242e-04 7.2822602317 0 0 0 0 0 0 0.000000
1 111 18.0240658165 2.00323351 5.9114216438 0 0 0 0 0 0 0.000000
1 112 20.2645195148 2.00323351 6.785680331 0 0 0 0 0 0 0.000000
1 113 12.3316083932 8.0126290252 0.1796380677 0 0 0 0 0 0 0.000000
1 114 14.2348642219 2.00323351 7.0008855198 0 0 0 0 0 0 0.000000
1 115 16.5221335804 2.00323351 0.467994563 0 0 0 0 0 0 0.000000
1 116 19.2457669624 0.0010903229 2.6502507306 0 0 0 0 0 0 0.000000
1 117 15.3788968001 8.0125456949 3.728483508 0 0 0 0 0 0 0.000000
1 118 17.6654349606 8.0117317693 4.5454811349 0 0 0 0 0 0 0.000000
1 119 17.2765787724 2.00323351 3.1853329969 0 0 0 0 0 0 0.000000
1 120 19.5300860593 2.00323351 3.9779084455 0 0 0 0 0 0 0.000000
1 121 11.5660184349 1.143604993e-05 4.8104306425 0 0 0 0 0 0 0.000000
1 122 13.8523405657 8.0128208102 5.6329317434 0 0 0 0 0 0 0.000000
1 123 13.4693046952 2.00323351 4.27038473 0 0 0 0 0 0 0.000000
1 124 15.7459969446 2.00323351 5.0899061026 0 0 0 0 0 0 0.000000
1 125 7.7691999437 8.0126092337 5.9039155606 0 0 0 0 0 0 0.000000
1 126 10.0501778569 9.628636359e-05 6.7187657018 0 0 0 0 0 0 0.000000
1 127 9.6678812538 2.00323351 5.3560059161 0 0 0 0 0 0 0.000000
1 128 11.9547464282 2.00323351 6.1762639548 0 0 0 0 0 0 0.000000
1 129 3.9726143042 0.0037731887 7.0366048473 0 0 0 0 0 0 0.000000
1 130 6.2374482602 1.8365528307e-04 0.4480954388 0 0 0 0 0 0 0.000000
1 131 5.8463037349 2.00323351 6.4528784538 0 0 0 0 0 0 0.000000
1 132 8.1375471625 2.00323351 7.2617962951 0 0 0 0 0 0 0.000000
1 133 14.6130673185 1.843254266e-05 1.0033913081 0 0 0 0 0 0 0.000000
1 134 16.9091688227 1.315922708e-05 1.8308647448 0 0 0 0 0 0 0.000000
1 135 18.8245729957 2.00323351 1.3090756138 0 0 0 0 0 0 0.000000
1 136 10.8103837999 1.986288659e-04 2.0834852131 0 0 0 0 0 0 0.000000
1 137 13.0945695219 4.4774345e-06 2.9066778948 0 0 0 0 0 0 0.000000
1 138 12.7082215971 2.00323351 1.5405691973 0 0 0 0 0 0 0.000000
1 139 14.9951388098 2.00323351 2.3649968745 0 0 0 0 0 0 0.000000
1 140 6.99767814 8.0120980509 3.1692835544 0 0 0 0 0 0 0.000000
1 141 9.2861082755 2.2222771422e-04 3.9886928429 0 0 0 0 0 0 0.000000
1 142 8.9079335368 2.00323351 2.6285433052 0 0 0 0 0 0 0.000000
1 143 11.1897428985 2.00323351 3.4487196825 0 0 0 0 0 0 0.000000
1 144 3.2522397533 0.00416159 4.205367321 0 0 0 0 0 0 0.000000
1 145 5.4821867227 5.9508815095e-04 5.0924359994 0 0 0 0 0 0 0.000000
1 146 5.1216296555 2.00323351 3.7180728855 0 0 0 0 0 0 0.000000
1 147 7.3871619039 2.00323351 4.5391108088 0 0 0 0 0 0 0.000000
1 148 1.9449850591 7.9843386135 6.0279416122 0 0 0 0 0 0 0.000000
1 149 0.511384708 2.00323351 5.239570126 0 0 0 0 0 0 0.000000
1 150 3.515380845 2.00323351 5.6164756995 0 0 0 0 0 0 0.000000
1 151 8.5234535823 2.7846568495e-04 1.2640000253 0 0 0 0 0 0 0.000000
1 152 10.4237125432 2.00323351 0.7197514913 0 0 0 0 0 0 0.000000
1 153 2.1961816987 8.0097845395 1.5520105615 0 0 0 0 0 0 0.000000
1 154 4.6965844762 0.0019319922 2.3300254878 0 0 0 0 0 0 0.000000
1 155 4.2719056299 2.00323351 0.9931349388 0 0 0 0 0 0 0.000000
1 156 6.6143519011 2.00323351 1.8074358272 0 0 0 0 0 0 0.000000
1 157 0.7781468338 8.00254549 3.8255061726 0 0 0 0 0 0 0.000000
1 158 0.7610064578 2.00323351 2.4432391735 0 0 0 0 0 0 0.000000
1 159 2.8869622629 2.00323351 2.9732527001 0 0 0 0 0 0 0.000000
1 160 41.4767420263 0.0019509981 6.6801080161 0 0 0 0 0 0 0.000000
1 161 19.9803495462 4.0037016895 5.4035954145 0 0 0 0 0 0 0.000000
1 162 16.132689103 4.0063820669 6.4565714004 0 0 0 0 0 0 0.000000
1 163 18.4108264065 4.0058970412 7.2822602317 0 0 0 0 0 0 0.000000
1 164 18.0326503778 6.00970053 5.91613288 0 0 0 0 0 0 0.000000
1 165 20.2768763639 6.00970053 6.7987931559 0 0 0 0 0 0 0.000000
1 166 12.3316083932 4.0067720348 0.1796380677 0 0 0 0 0 0 0.000000
1 167 14.2342308744 6.00970053 7.0017056561 0 0 0 0 0 0 0.000000
1 168 16.5216059745 6.00970053 0.4673753205 0 0 0 0 0 0 0.000000
1 169 19.2457669624 4.0053766971 2.6502507306 0 0 0 0 0 0 0.000000
1 170 15.3788968001 4.0068553651 3.728483508 0 0 0 0 0 0 0.000000
1 171 17.6654349606 4.0076692907 4.5454811349 0 0 0 0 0 0 0.000000
1 172 17.2786280287 6.00970053 3.1877215249 0 0 0 0 0 0 0.000000
1 173 19.5346472652 6.00970053 3.9789700216 0 0 0 0 0 0 0.000000
1 174 11.5660184349 4.006455584 4.8104306425 0 0 0 0 0 0 0.000000
1 175 13.8523405657 4.0065802498 5.6329317434 0 0 0 0 0 0 0.000000
1 176 13.4696338955 6.00970053 4.2711396689 0 0 0 0 0 0 0.000000
1 177 15.7490958838 6.00970053 5.0916654285 0 0 0 0 0 0 0.000000
1 178 7.7691999437 4.0067918263 5.9039155606 0 0 0 0 0 0 0.000000
1 179 10.0501778569 4.0063707336 6.7187657018 0 0 0 0 0 0 0.000000
1 180 9.6672030953 6.00970053 5.355535375 0 0 0 0 0 0 0.000000
1 181 11.9540519093 6.00970053 6.1762501543 0 0 0 0 0 0 0.000000
1 182 3.9726143042 4.0026938313 7.0366048473 0 0 0 0 0 0 0.000000
1 183 6.2374482602 4.0062833647 0.4480954388 0 0 0 0 0 0 0.000000
1 184 5.8496479489 6.00970053 6.4543958382 0 0 0 0 0 0 0.000000
1 185 8.1379307796 6.00970053 7.2632649171 0 0 0 0 0 0 0.000000
1 186 1.918008564 6.00970053 0.1337454638 0 0 0 0 0 0 0.000000
1 187 14.6130673185 4.0064485875 1.0033913081 0 0 0 0 0 0 0.000000
1 188 16.9091688227 4.0064538608 1.8308647448 0 0 0 0 0 0 0.000000
1 189 18.8200889745 6.00970053 1.3101837509 0 0 0 0 0 0 0.000000
1 190 10.8103837999 4.0062683911 2.0834852131 0 0 0 0 0 0 0.000000
1 191 13.0945695219 4.0064625426 2.9066778948 0 0 0 0 0 0 0.000000
1 192 12.706395454 6.00970053 1.5413749787 0 0 0 0 0 0 0.000000
1 193 14.994367624 6.00970053 2.3657061524 0 0 0 0 0 0 0.000000
1 194 6.99767814 4.0073030091 3.1692835544 0 0 0 0 0 0 0.000000
1 195 9.2861082755 4.0062447923 3.9886928429 0 0 0 0 0 0 0.000000
1 196 8.9061113769 6.00970053 2.6286063781 0 0 0 0 0 0 0.000000
1 197 11.188108088 6.00970053 3.4489667859 0 0 0 0 0 0 0.000000
1 198 3.2522397533 4.00230543 4.205367321 0 0 0 0 0 0 0.000000
1 199 5.4821867227 4.0058719318 5.0924359994 0 0 0 0 0 0 0.000000
1 200 5.1134684988 6.00970053 3.7223874222 0 0 0 0 0 0 0.000000
1 201 7.3859714908 6.00970053 4.5386307185 0 0 0 0 0 0 0.000000
1 202 1.9449850591 4.0350624465 6.0279416122 0 0 0 0 0 0 0.000000
1 203 0.4642301137 6.00970053 5.2538092646 0 0 0 0 0 0 0.000000
1 204 3.5300697976 6.00970053 5.6091018653 0 0 0 0 0 0 0.000000
1 205 8.5234535823 4.0061885543 1.2640000253 0 0 0 0 0 0 0.000000
1 206 10.4230546197 6.00970053 0.7198433757 0 0 0 0 0 0 0.000000
1 207 2.1961816987 4.0096165205 1.5520105615 0 0 0 0 0 0 0.000000
1 208 4.6965844762 4.0045350278 2.3300254878 0 0 0 0 0 0 0.000000
1 209 4.2734939415 6.00970053 0.9950066835 0 0 0 0 0 0 0.000000
1 210 6.6102481552 6.00970053 1.8065066715 0 0 0 0 0 0 0.000000
1 211 0.7781468338 4.01685557 3.8255061726 0 0 0 0 0 0 0.000000
1 212 0.7586813841 6.00970053 2.4017975618 0 0 0 0 0 0 0.000000
1 213 2.8731801102 6.00970053 2.9726582033 0 0 0 0 0 0 0.000000
1 214 41.4767420263 4.0045160219 6.6801080161 0 0 0 0 0 0 0.000000
2 215 19.8 5.5 2.47 0.40541400 722.48406585 0.17301400 1.410341 0.269153 0.208637 1.386596
2 216 19.83 1.49 2.47 0.35641400 707.84102891 0.10551400 1.399242 0.260632 0.179018 1.359681
2 217 19.83 2.5 2.47 0.35641400 706.98895057 0.10461400 1.401006 0.260967 0.176308 1.356543
2 218 20.04 5.05 1.73 0.42501400 729.64391378 0.19171400 1.407498 0.266339 0.205653 1.377775
2 219 20.04 6.96 1.73 0.42501400 728.69739471 0.19171400 1.406975 0.266453 0.205695 1.378988
2 220 20.06 1.06 1.74 0.36671400 712.79023729 0.11221400 1.406291 0.260240 0.174211 1.368129
2 221 20.06 2.94 1.74 0.36671400 712.43288905 0.11201400 1.405015 0.259378 0.174550 1.367860
2 222 20.12 3.49 3.89 0.46201400 743.87171182 0.25321400 1.401374 0.268740 0.218017 1.386420
2 223 20.32 2.46 0.95965009 0.42301400 723.26628046 0.14721400 1.400818 0.269688 0.195341 1.360850
2 224 20.42 5.02 3.06 0.38461400 718.01329771 0.18441400 1.405735 0.262311 0.219321 1.380310
2 225 20.42 6.99 3.06 0.38461400 717.80587276 0.18451400 1.405053 0.263961 0.219300 1.380812
2 226 20.43 2.98 3.05 0.37331400 706.60972136 0.17181400 1.412442 0.256290 0.164608 0.000000
2 227 20.43 1.01706596 3.05 0.37331400 707.30202619 0.17111400 1.412448 0.256175 0.175687 1.358754
2 228 20.74 3.52 2.23 0.32751400 710.63015039 0.12601400 1.386568 0.247867 0.182984 1.386131
2 229 20.74 4.48 2.23 0.34811400 719.29709215 0.13541400 1.386285 0.256154 0.178781 1.381865
2 230 20.74 7.53 2.23 0.34811400 718.85793884 0.13551400 1.385861 0.249785 0.179828 1.381347
2 231 20.74 0.47706596 2.23 0.32751400 711.59492673 0.12591400 1.386236 0.247755 0.183011 1.385931
2 232 21.29 1.49 0.56965009 0.41641400 667.83140661 0.14561400 1.348486 0.240390 0.185990 0.000000
2 233 21.29 2.51 0.56965009 0.41641400 667.73992098 0.14111400 1.350495 0.240229 0.186627 1.341377
2 234 21.34 5.48 0.54965009 0.26941400 680.47276689 0.05481400 1.390264 0.241578 0.194347 0.000000
2 235 21.34 6.53 0.54965009 0.26941400 679.26016794 0.05421400 1.391365 0.241304 0.191857 1.392848
2 236 21.55 4.37 5.13 0.22261400 632.71191170 0.04261400 1.382922 0.235527 0.195471 1.369525
2 237 21.55 7.64 5.13 0.22261400 632.82948960 0.04291400 1.381173 0.239986 0.195899 0.000000
2 238 21.56 3.63 5.13 0.20471400 628.85832336 0.03041400 1.387545 0.239894 0.199374 0.000000
2 239 21.56 0.36706596 5.13 0.20471400 627.98816113 0.03051400 1.388323 0.240054 0.200297 1.365686
2 240 21.75 5.17 0.80965009 0.26941400 707.37419384 0.05441400 1.389989 0.241250 0.192510 1.391871
2 241 22.07 4.43 7.17 0.08371400 550.14156595 -0.00688600 1.322178 0.184668 0.169986 1.316740
2 242 22.07 7.58 7.17 0.08371400 550.72653018 -0.00698600 1.322742 0.181896 0.168693 1.316810
2 243 22.08 3.6 7.18 0.21741400 540.42968591 0.11411400 1.296818 0.176210 0.167946 1.316292
2 244 22.08 0.39706596 7.18 0.21751400 540.84010385 0.09941400 1.294724 0.175923 0.167631 1.316027
2 245 22.33 2.46 3.43 -0.05568600 553.51281725 -0.11108600 1.337087 0.149301 0.144806 1.331360
2 246 22.33 1.53706596 3.43 -0.05568600 553.27169412 -0.11098600 1.334381 0.148574 0.145269 1.330113
2 247 22.58 7.17 4.49 0.27411400 698.46977884 0.06941400 1.394894 0.237512 0.194573 1.386374
2 248 22.6 3.17 4.48 0.24351400 694.04707289 0.03901400 1.393170 0.232051 0.196061 1.389255
2 249 22.6 0.82706596 4.48 0.24351400 694.04720764 0.03901400 1.391565 0.232492 0.195971 1.389484
2 250 22.76 5.67 1.46965009 0.24451400 633.08083165 0.06681400 1.378116 0.237629 0.193287 1.362115
2 251 22.76 6.34 1.46965009 0.24451400 633.41030259 0.06681400 1.377447 0.237598 0.193459 1.362269
2 252 22.77 2.4 1.45965009 0.31311400 623.80473323 0.15521400 1.363037 0.226645 0.185322 1.349776
2 253 22.77 1.59706596 1.46 0.31311400 623.90382790 0.15521400 1.363462 0.226681 0.185080 1.348812
2 254 22.97 3.46 4.25 0.24351400 672.75868022 0.03901400 1.391843 0.233497 0.195722 1.388792
2 255 22.97 4.53 4.25 0.27411400 671.80530192 0.06961400 1.395894 0.237324 0.194532 0.000000
2 256 22.97 7.48 4.25 0.27421400 670.74265640 0.06881400 1.395936 0.238706 0.194685 1.385721
2 257 22.97 0.53706596 4.25 0.24351400 672.93940979 0.03911400 1.392472 0.232175 0.195904 1.389659
2 258 23.32 0.52706596 7.29 0.46711400 679.05049588 0.20471400 1.353637 0.251576 0.158951 1.351010
2 259 23.57 2.47 5.95 0.38721400 672.30662179 0.13501400 1.329095 0.227026 0.149953 1.337123
2 260 23.57 1.52706596 5.95 0.38721400 673.39959074 0.13501400 1.330052 0.227312 0.150052 1.335551
2 261 23.59 5.52 5.93 0.35811400 709.95593521 0.15971400 1.388173 0.250483 0.189356 1.382008
2 262 23.59 6.49 5.93 0.35811400 711.33021357 0.15781400 1.388776 0.250759 0.184368 1.380716
2 263 23.87 3.01 6.77 0.41521400 672.02935720 0.20431400 1.359035 0.241506 0.160201 1.355020
2 264 23.87 0.98706596 6.77 0.41511400 673.48927213 0.20451400 1.359253 0.241138 0.160004 1.356503
2 265 23.89 4.98 6.75 0.36241400 709.87994103 0.16501400 1.411201 0.259373 0.213684 1.407593
2 266 23.89 7.03 6.75 0.36241400 709.04705371 0.16521400 1.411155 0.258416 0.213942 1.407075
2 267 24.16 1.48 0.21965009 0.48401400 707.68100949 0.21741400 1.354354 0.251280 0.159060 0.000000
2 268 24.27 3.06 5.46 0.37791400 713.56131752 0.12341400 1.413473 0.262576 0.188601 1.377612
2 269 24.27 4.95 5.45 0.40451400 719.18717550 0.14791400 1.412567 0.260877 0.174495 1.367177
2 270 24.27 7.06 5.45 0.40451400 718.72519661 0.14791400 1.413917 0.260371 0.172528 0.000000
2 271 24.27 0.93706596 5.46 0.37791400 713.54763369 0.12331400 1.413928 0.265349 0.188732 1.377869
2 272 24.49 3.49 6.17 0.35091400 704.43787869 0.10701400 1.409593 0.266514 0.197345 1.376087
2 273 24.49 0.50706596 6.17 0.35091400 705.21290235 0.10681400 1.409913 0.265787 0.196108 1.375059
2 274 24.5 4.51 6.18 0.37241400 715.50256679 0.12571400 1.406079 0.263068 0.189616 1.371096
2 275 24.5 7.5 6.18 0.37241400 713.90906463 0.12581400 1.407048 0.263087 0.189990 1.369873
2 276 21.38 3.42 6.44 -0.00528600 508.40341882 -0.05198600 1.321862 0.151422 0.148338 0.000000
2 277 21.38 4.57 6.44 -0.05178600 513.05748322 -0.11058600 1.327737 0.137250 0.141113 1.329967
2 278 21.38 7.43 6.44 -0.05178600 517.34980994 -0.11118600 1.326858 0.137630 0.142020 1.327836
2 279 21.38 0.57706596 6.44 -0.00528600 507.77629141 -0.05208600 1.321027 0.159921 0.147940 1.318589
2 280 21.41 3.26 6.2 -0.00528600 531.60700122 -0.05068600 1.322764 0.150404 0.148294 1.320001
2 281 21.41 4.73 6.22 -0.05178600 538.97728088 -0.11118600 1.325549 0.136222 0.141833 0.000000
2 282 21.41 7.28 6.22 -0.05178600 540.80413624 -0.11128600 1.325488 0.137333 0.141442 1.328309
2 283 21.41 0.73706596 6.2 -0.00528600 531.20254750 -0.05188600 1.321927 0.150588 0.147821 1.320065
2 284 21.54 3.28 6.61 -0.00528600 514.34931013 -0.05198600 1.321668 0.158794 0.147916 1.319119
2 285 21.54 0.71706596 6.61 -0.00528600 513.00258709 -0.05198600 1.321929 0.148936 0.147795 1.319361
2 286 21.57 4.73 6.64 0.13491400 525.56070767 -0.11108600 1.327861 0.133557 0.141131 1.329402
2 287 21.57 7.28 6.64 -0.05178600 526.83258462 -0.11138600 1.325698 0.137303 0.141114 1.329310
2 288 21.6 3.07 6.33 -0.00528600 544.48280982 -0.05208600 1.321937 0.150371 0.147712 1.321135
2 289 21.6 0.92706596 6.33 -0.00528600 543.39955451 -0.05118600 1.321378 0.149714 0.148147 0.000000
2 290 21.61 4.94 6.36 -0.05178600 560.02503354 -0.11108600 1.326463 0.136673 0.141738 1.328612
2 291 21.61 7.07 6.36 -0.05178600 561.55233733 -0.11088600 1.327455 0.138696 0.140663 1.330165
2 292 22.3 5.59 3.44 0.07731400 542.78353995 0.00421400 1.305563 0.177361 0.164419 1.301607
2 293 22.3 6.42 3.44 0.07741400 541.46974555 0.00391400 1.305219 0.178766 0.165489 1.303475
2 294 22.73 2.92 2.71 -0.05568600 560.20699165 -0.11098600 1.329878 0.147790 0.145257 1.330604
2 295 22.73 1.07706596 2.71 -0.05568600 562.25998281 -0.11128600 1.334029 0.147960 0.144883 1.333218
2 296 22.74 5.16 2.74 -0.04248600 543.71935552 -0.09038600 1.313779 0.145375 0.143358 1.315522
2 297 22.74 6.85 2.74 -0.04248600 542.17618252 -0.09028600 1.314568 0.144903 0.142983 1.316608
2 298 22.77 2.72 2.98 -0.05568600 528.17000335 -0.11108600 1.336206 0.149156 0.145480 1.331472
2 299 22.77 5.3 2.93 -0.04248600 520.89163191 -0.09028600 1.315345 0.145179 0.142574 1.315106
2 300 22.77 6.71 2.93 -0.04248600 519.27690914 -0.08948600 1.315431 0.145445 0.143706 1.317004
2 301 22.77 1.27706596 2.98 -0.05568600 528.92852191 -0.11088600 1.334590 0.149004 0.145263 1.331061
2 302 22.89 5.31 2.63 -0.04248600 530.11918585 -0.09038600 1.315155 0.145181 0.143886 1.315250
2 303 22.89 6.7 2.63 -0.04248600 528.62953615 -0.08878600 1.315074 0.145339 0.143076 1.317608
2 304 22.91 2.73 2.58 -0.05568600 539.38719980 -0.11128600 1.331558 0.147941 0.144700 1.331297
2 305 22.91 5.42 2.79 -0.04248600 512.16929998 -0.09028600 1.314865 0.145418 0.143163 1.316666
2 306 22.91 6.59 2.79 -0.04248600 510.61896335 -0.09038600 1.314876 0.145454 0.143016 1.315746
2 307 22.91 1.25706596 2.58 -0.05568600 542.27050423 -0.11098600 1.334459 0.148252 0.145262 1.330312
2 308 22.94 1.42 2.8 -0.05568600 518.37032758 -0.11098600 1.333271 0.146971 0.145694 1.329711
2 309 22.94 2.58 2.8 -0.05568600 517.90359843 -0.11138600 1.332904 0.147357 0.144937 1.333198
3 310 22.6818231237 2.00323351 7.2427006244 0 0 0 0 0 0 0.000000
3 311 1.8636098037 2.00323351 0.1176492756 0 0 0 0 0 0 0.000000
