ITEM: TIMESTEP
0
ITEM: NUMBER OF ATOMS
308
ITEM: BOX BOUNDS pp pp pp
0.0 41.63642664
0.0 8.01293404
0.0 7.36034991
ITEM: ATOMS type id x y z SE CD SE_NF BC ZPE ZPE_NF BC_NF
1 1 29.2879922509 0.0020253604 0.1548679599 0 0 0 0 0 0 0.000000
1 2 25.4322042229 0.005704575 6.4226410533 0 0 0 1.384150 0 0 0.000000
1 3 27.3510920308 2.00323351 6.9728166275 0 0 0 0 0 0 0.000000
1 4 21.6801085637 7.9077162503 5.4028464843 0 0 0 0 0 0 0.000000
1 5 23.1743891537 7.9424766491 7.2994508506 0 0 0 0 0 0 0.000000
1 6 23.2512818601 2.00323351 5.9492418645 0 0 0 0 0 0 0.000000
1 7 25.0334774152 2.00323351 0.4184682519 0 0 0 0 0 0 0.000000
1 8 22.7326227933 2.00323351 1.2663037708 0 0 0 0 0 0 0.000000
1 9 37.7484103734 0.0066924487 6.9704780573 0 0 0 0 0 0 0.000000
1 10 39.6402585999 2.00323351 0.0769723542 0 0 0 0 0 0 0.000000
1 11 33.8986537908 0.0012369675 5.877223462 0 0 0 0 0 0 0.000000
1 12 35.4450234469 0.001042931 0.4229272151 0 0 0 0 0 0 0.000000
1 13 35.8290336273 2.00323351 6.4183447707 0 0 0 0 0 0 0.000000
1 14 30.0596712594 8.6074675885e-04 4.7890343179 0 0 0 0 0 0 0.000000
1 15 31.5936741565 0.0011182497 6.6964527516 0 0 0 0 0 0 0.000000
1 16 31.9799735096 2.00323351 5.3323039743 0 0 0 0 0 0 0.000000
1 17 33.520473558 2.00323351 7.241353545 0 0 0 0 0 0 0.000000
1 18 26.2065437486 0.0041710759 3.7095893977 0 0 0 0 0 0 0.000000
1 19 27.7465694015 0.0033940417 5.6115512409 0 0 0 0 0 0 0.000000
1 20 28.1206025336 2.00323351 4.2509786557 0 0 0 0 0 0 0.000000
1 21 29.6683313344 2.00323351 6.1506214397 0 0 0 0 0 0 0.000000
1 22 22.106943482 8.001946632 2.4598813664 0 0 0 0 0 0 0.000000
1 23 23.8828620963 0.0124909921 4.4939496673 0 0 0 0 0 0 0.000000
1 24 24.2766812639 2.00323351 3.1594372791 0 0 0 0 0 0 0.000000
1 25 25.7749062135 2.00323351 5.0729493698 0 0 0 0 0 0 0.000000
1 26 21.9841033654 2.00323351 3.8206030628 0 0 0 0 0 0 0.000000
1 27 38.5190448091 0.0017299342 4.2367794799 0 0 0 0 0 0 0.000000
1 28 40.0419832281 7.9214624186 6.0984571139 0 0 0 0 0 0 0.000000
1 29 40.7532812472 2.00323351 5.0024159257 0 0 0 0 0 0 0.000000
1 30 34.6768000695 0.0018719123 3.1493087401 0 0 0 0 0 0 0.000000
1 31 36.2127876916 3.9645913679e-04 5.0549666342 0 0 0 0 0 0 0.000000
1 32 36.6054179878 2.00323351 3.6927590612 0 0 0 0 0 0 0.000000
1 33 38.1630835237 2.00323351 5.5759984609 0 0 0 0 0 0 0.000000
1 34 30.8271625377 7.6738699691e-04 2.0609194379 0 0 0 0 0 0 0.000000
1 35 32.3646978886 9.7472761396e-04 3.9685558367 0 0 0 0 0 0 0.000000
1 36 32.7477263111 2.00323351 2.6069019037 0 0 0 0 0 0 0.000000
1 37 34.2903142494 2.00323351 4.5108971832 0 0 0 0 0 0 0.000000
1 38 26.9842845428 0.0030722256 0.9770803019 0 0 0 0 0 0 0.000000
1 39 28.519423196 0.0023070261 2.8853589954 0 0 0 0 0 0 0.000000
1 40 28.9035032627 2.00323351 1.5184055707 0 0 0 0 0 0 0.000000
1 41 30.4405038541 2.00323351 3.4274468224 0 0 0 0 0 0 0.000000
1 42 24.6671958528 0.0141425652 1.8197586951 0 0 0 0 0 0 0.000000
1 43 26.5885629799 2.00323351 2.3408409039 0 0 0 0 0 0 0.000000
1 44 20.9755641957 0.7803139767 0.1018355718 0 0 0 0 0 0 0.000000
1 45 39.4224361529 0.0073318588 1.4783332968 0 0 0 0 0 0 0.000000
1 46 40.8084315325 0.0370255888 3.543478378 0 0 0 0 0 0 0.000000
1 47 41.1399770598 2.00323351 1.9599503499 0 0 0 0 0 0 0.000000
1 48 37.0000299183 0.0057074235 2.3312239011 0 0 0 0 0 0 0.000000
1 49 37.3748005542 2.00323351 0.9731672207 0 0 0 0 0 0 0.000000
1 50 38.9321601994 2.00323351 2.9021612081 0 0 0 0 0 0 0.000000
1 51 33.1340615936 5.6744738798e-04 1.2430393292 0 0 0 0 0 0 0.000000
1 52 35.0617947356 2.00323351 1.7860606853 0 0 0 0 0 0 0.000000
1 53 31.2109660831 2.00323351 0.6997463368 0 0 0 0 0 0 0.000000
1 54 29.2879922509 4.0044416596 0.1548679599 0 0 0 0 0 0 0.000000
1 55 25.4322042229 4.000762445 6.4226410533 0 0 0 0 0 0 0.000000
1 56 27.3770100736 6.00970053 6.9712913415 0 0 0 0 0 0 0.000000
1 57 21.6801085637 4.1116848097 5.4028464843 0 0 0 0 0 0 0.000000
1 58 23.1743891537 4.0769244109 7.2994508506 0 0 0 0 0 0 0.000000
1 59 23.4572142271 6.00970053 5.8872324136 0 0 0 0 0 0 0.000000
1 60 25.1104159066 6.00970053 0.4255298062 0 0 0 0 0 0 0.000000
1 61 21.0979105685 6.00970053 0.0888395077 0 0 0 0 0 0 0.000000
1 62 37.7484103734 3.9997745713 6.9704780573 0 0 0 0 0 0 0.000000
1 63 39.5689703814 6.00970053 0.1168767528 0 0 0 0 0 0 0.000000
1 64 33.8986537908 4.0052300525 5.877223462 0 0 0 0 0 0 0.000000
1 65 35.4450234469 4.005424089 0.4229272151 0 0 0 0 0 0 0.000000
1 66 35.8179819974 6.00970053 6.4200613962 0 0 0 0 0 0 0.000000
1 67 30.0596712594 4.0056062732 4.7890343179 0 0 0 0 0 0 0.000000
1 68 31.5936741565 4.0053487703 6.6964527516 0 0 0 0 0 0 0.000000
1 69 31.9796637893 6.00970053 5.3322752495 0 0 0 0 0 0 0.000000
1 70 33.5170469788 6.00970053 7.241933231 0 0 0 0 0 0 0.000000
1 71 26.2065437486 4.0022959441 3.7095893977 0 0 0 0 0 0 0.000000
1 72 27.7465694015 4.0030729783 5.6115512409 0 0 0 0 0 0 0.000000
1 73 28.1374663052 6.00970053 4.2500190401 0 0 0 0 0 0 0.000000
1 74 29.6750725484 6.00970053 6.1522652035 0 0 0 0 0 0 0.000000
1 75 22.106943482 4.017454428 2.4598813664 0 0 0 0 0 0 0.000000
1 76 23.8828620963 3.9939760279 4.4939496673 0 0 0 0 0 0 0.000000
1 77 24.3350160478 6.00970053 3.1970689097 0 0 0 0 0 0 0.000000
1 78 25.8348944386 6.00970053 5.0783795216 0 0 0 0 0 0 0.000000
1 79 22.0084902037 6.00970053 3.8252878908 0 0 0 0 0 0 0.000000
1 80 38.5190448091 4.0047370858 4.2367794799 0 0 0 0 0 0 0.000000
1 81 40.0419832281 4.0979386414 6.0984571139 0 0 0 0 0 0 0.000000
1 82 40.6577864383 6.00970053 4.8393401147 0 0 0 0 0 0 0.000000
1 83 34.6768000695 4.0045951077 3.1493087401 0 0 0 0 0 0 0.000000
1 84 36.2127876916 4.0060705609 5.0549666342 0 0 0 0 0 0 0.000000
1 85 36.5903407644 6.00970053 3.6909349237 0 0 0 0 0 0 0.000000
1 86 38.1301483609 6.00970053 5.5820319419 0 0 0 0 0 0 0.000000
1 87 30.8271625377 4.005699633 2.0609194379 0 0 0 0 0 0 0.000000
1 88 32.3646978886 4.0054922924 3.9685558367 0 0 0 0 0 0 0.000000
1 89 32.7461306527 6.00970053 2.6074841124 0 0 0 0 0 0 0.000000
1 90 34.2871511293 6.00970053 4.509871023 0 0 0 0 0 0 0.000000
1 91 26.9842845428 4.0033947944 0.9770803019 0 0 0 0 0 0 0.000000
1 92 28.519423196 4.0041599939 2.8853589954 0 0 0 0 0 0 0.000000
1 93 28.9130797727 6.00970053 1.519691794 0 0 0 0 0 0 0.000000
1 94 30.4440656443 6.00970053 3.4271708428 0 0 0 0 0 0 0.000000
1 95 24.6671958528 3.9923244548 1.8197586951 0 0 0 0 0 0 0.000000
1 96 26.6145303435 6.00970053 2.3461466799 0 0 0 0 0 0 0.000000
1 97 20.9755641957 3.2261530433 0.1018355718 0 0 0 0 0 0 0.000000
1 98 22.9376102187 6.00970053 1.3503659864 0 0 0 0 0 0 0.000000
1 99 39.4224361529 3.9991351612 1.4783332968 0 0 0 0 0 0 0.000000
1 100 40.8084315325 3.9694414312 3.543478378 0 0 0 0 0 0 0.000000
1 101 41.0503434741 6.00970053 2.0682066661 0 0 0 0 0 0 0.000000
1 102 37.0000299183 4.0007595965 2.3312239011 0 0 0 0 0 0 0.000000
1 103 37.3499416811 6.00970053 0.9765924319 0 0 0 0 0 0 0.000000
1 104 38.8715444491 6.00970053 2.9102909029 0 0 0 0 0 0 0.000000
1 105 33.1340615936 4.0058995726 1.2430393292 0 0 0 0 0 0 0.000000
1 106 35.0536226819 6.00970053 1.7893116448 0 0 0 0 0 0 0.000000
1 107 31.2142410978 6.00970053 0.6992292919 0 0 0 0 0 0 0.000000
1 108 19.9902182225 0.0370255888 3.816871532 0 0 0 0 0 0 0.000000
1 109 16.1818166083 0.0057074235 5.0291259989 0 0 0 0 0 0 0.000000
1 110 18.6042228329 0.0073318588 5.8820166132 0 0 0 0 0 0 0.000000
1 111 18.1139468794 2.00323351 4.4581887019 0 0 0 0 0 0 0.000000
1 112 20.3217637398 2.00323351 5.4003995601 0 0 0 0 0 0 0.000000
1 113 12.3158482836 5.6744738798e-04 6.1173105708 0 0 0 0 0 0 0.000000
1 114 14.2435814156 2.00323351 5.5742892247 0 0 0 0 0 0 0.000000
1 115 16.5565872442 2.00323351 6.3871826793 0 0 0 0 0 0 0.000000
1 116 19.2237699181 7.9214624186 1.2618927861 0 0 0 0 0 0 0.000000
1 117 15.3945743816 3.9645913679e-04 2.3053832658 0 0 0 0 0 0 0.000000
1 118 17.7008314891 0.0017299342 3.1235704301 0 0 0 0 0 0 0.000000
1 119 17.3448702037 2.00323351 1.7843514491 0 0 0 0 0 0 0.000000
1 120 19.9350679372 2.00323351 2.3579339843 0 0 0 0 0 0 0.000000
1 121 11.5464845786 9.7472761396e-04 3.3917940733 0 0 0 0 0 0 0.000000
1 122 13.8585867495 0.0018719123 4.2110411699 0 0 0 0 0 0 0.000000
1 123 13.4721009294 2.00323351 2.8494527268 0 0 0 0 0 0 0.000000
1 124 15.7872046778 2.00323351 3.6675908388 0 0 0 0 0 0 0.000000
1 125 7.701209876 0.0023070261 4.4749909146 0 0 0 0 0 0 0.000000
1 126 10.0089492177 7.6738699691e-04 5.2994304721 0 0 0 0 0 0 0.000000
1 127 9.6222905341 2.00323351 3.9329030876 0 0 0 0 0 0 0.000000
1 128 11.9295130011 2.00323351 4.7534479963 0 0 0 0 0 0 0.000000
1 129 3.8489825328 0.0141425652 5.5405912149 0 0 0 0 0 0 0.000000
1 130 6.1660712228 0.0030722256 6.3832695981 0 0 0 0 0 0 0.000000
1 131 5.7703496599 2.00323351 5.0195089961 0 0 0 0 0 0 0.000000
1 132 8.0852899527 2.00323351 5.8419443393 0 0 0 0 0 0 0.000000
1 133 14.6268101269 0.001042931 6.9374226849 0 0 0 0 0 0 0.000000
1 134 16.9301970534 0.0066924487 0.3898718527 0 0 0 0 0 0 0.000000
1 135 18.8220452799 2.00323351 7.2833775458 0 0 0 0 0 0 0.000000
1 136 10.7754608365 0.0011182497 0.6638971584 0 0 0 0 0 0 0.000000
1 137 13.0804404708 0.0012369675 1.483126448 0 0 0 0 0 0 0.000000
1 138 12.702260248 2.00323351 0.118996365 0 0 0 0 0 0 0.000000
1 139 15.0108203073 2.00323351 0.9420051293 0 0 0 0 0 0 0.000000
1 140 6.9283560815 0.0033940417 1.7487986691 0 0 0 0 0 0 0.000000
1 141 9.2414579494 8.6074675885e-04 2.5713155921 0 0 0 0 0 0 0.000000
1 142 8.8501180244 2.00323351 1.2097284603 0 0 0 0 0 0 0.000000
1 143 11.1617601896 2.00323351 2.0280459357 0 0 0 0 0 0 0.000000
1 144 3.0646487763 0.0124909921 2.8664002427 0 0 0 0 0 0 0.000000
1 145 5.3883304386 0.0041710759 3.6507605023 0 0 0 0 0 0 0.000000
1 146 4.9566929035 2.00323351 2.2874005302 0 0 0 0 0 0 0.000000
1 147 7.3023892136 2.00323351 3.1093712543 0 0 0 0 0 0 0.000000
1 148 1.288730172 8.001946632 4.9004685336 0 0 0 0 0 0 0.000000
1 149 1.1658900554 2.00323351 3.5397468472 0 0 0 0 0 0 0.000000
1 150 3.4584679439 2.00323351 4.2009126309 0 0 0 0 0 0 0.000000
1 151 8.4697789409 0.0020253604 7.2054819401 0 0 0 0 0 0 0.000000
1 152 10.3927527631 2.00323351 6.6606035732 0 0 0 0 0 0 0.000000
1 153 2.3561758337 7.9424766491 0.0608990594 0 0 0 0 0 0 0.000000
1 154 4.6139909129 0.005704575 0.9377088467 0 0 0 0 0 0 0.000000
1 155 4.2152641052 2.00323351 6.9418816481 0 0 0 0 0 0 0.000000
1 156 6.5328787108 2.00323351 0.3875332825 0 0 0 0 0 0 0.000000
1 157 0.8618952537 7.9077162503 1.9575034257 0 0 0 0 0 0 0.000000
1 158 1.9144094733 2.00323351 6.0940461392 0 0 0 0 0 0 0.000000
1 159 2.4330685401 2.00323351 1.4111080455 0 0 0 0 0 0 0.000000
1 160 0.1573508757 0.7803139767 7.2585143382 0 0 0 0 0 0 0.000000
1 161 19.9902182225 3.9694414312 3.816871532 0 0 0 0 0 0 0.000000
1 162 16.1818166083 4.0007595965 5.0291259989 0 0 0 0 0 0 0.000000
1 163 18.6042228329 3.9991351612 5.8820166132 0 0 0 0 0 0 0.000000
1 164 18.0533311291 6.00970053 4.4500590071 0 0 0 0 0 0 0.000000
1 165 20.2321301541 6.00970053 5.2921432439 0 0 0 0 0 0 0.000000
1 166 12.3158482836 4.0058995726 6.1173105708 0 0 0 0 0 0 0.000000
1 167 14.2354093619 6.00970053 5.5710382652 0 0 0 0 0 0 0.000000
1 168 16.5317283711 6.00970053 6.3837574681 0 0 0 0 0 0 0.000000
1 169 19.2237699181 4.0979386414 1.2618927861 0 0 0 0 0 0 0.000000
1 170 15.3945743816 4.0060705609 2.3053832658 0 0 0 0 0 0 0.000000
1 171 17.7008314891 4.0047370858 3.1235704301 0 0 0 0 0 0 0.000000
1 172 17.3119350409 6.00970053 1.7783179681 0 0 0 0 0 0 0.000000
1 173 19.8395731283 6.00970053 2.5210097953 0 0 0 0 0 0 0.000000
1 174 11.5464845786 4.0054922924 3.3917940733 0 0 0 0 0 0 0.000000
1 175 13.8585867495 4.0045951077 4.2110411699 0 0 0 0 0 0 0.000000
1 176 13.4689378093 6.00970053 2.850478887 0 0 0 0 0 0 0.000000
1 177 15.7721274544 6.00970053 3.6694149763 0 0 0 0 0 0 0.000000
1 178 7.701209876 4.0041599939 4.4749909146 0 0 0 0 0 0 0.000000
1 179 10.0089492177 4.005699633 5.2994304721 0 0 0 0 0 0 0.000000
1 180 9.6258523243 6.00970053 3.9331790672 0 0 0 0 0 0 0.000000
1 181 11.9279173427 6.00970053 4.7528657876 0 0 0 0 0 0 0.000000
1 182 3.8489825328 3.9923244548 5.5405912149 0 0 0 0 0 0 0.000000
1 183 6.1660712228 4.0033947944 6.3832695981 0 0 0 0 0 0 0.000000
1 184 5.7963170235 6.00970053 5.0142032201 0 0 0 0 0 0 0.000000
1 185 8.0948664627 6.00970053 5.840658116 0 0 0 0 0 0 0.000000
1 186 2.1193968987 6.00970053 6.0099839136 0 0 0 0 0 0 0.000000
1 187 14.6268101269 4.005424089 6.9374226849 0 0 0 0 0 0 0.000000
1 188 16.9301970534 3.9997745713 0.3898718527 0 0 0 0 0 0 0.000000
1 189 18.7507570614 6.00970053 7.2434731472 0 0 0 0 0 0 0.000000
1 190 10.7754608365 4.0053487703 0.6638971584 0 0 0 0 0 0 0.000000
1 191 13.0804404708 4.0052300525 1.483126448 0 0 0 0 0 0 0.000000
1 192 12.6988336688 6.00970053 0.118416679 0 0 0 0 0 0 0.000000
1 193 14.9997686774 6.00970053 0.9402885038 0 0 0 0 0 0 0.000000
1 194 6.9283560815 4.0030729783 1.7487986691 0 0 0 0 0 0 0.000000
1 195 9.2414579494 4.0056062732 2.5713155921 0 0 0 0 0 0 0.000000
1 196 8.8568592384 6.00970053 1.2080846965 0 0 0 0 0 0 0.000000
1 197 11.1614504693 6.00970053 2.0280746605 0 0 0 0 0 0 0.000000
1 198 3.0646487763 3.9939760279 2.8664002427 0 0 0 0 0 0 0.000000
1 199 5.3883304386 4.0022959441 3.6507605023 0 0 0 0 0 0 0.000000
1 200 5.0166811286 6.00970053 2.2819703784 0 0 0 0 0 0 0.000000
1 201 7.3192529852 6.00970053 3.1103308699 0 0 0 0 0 0 0.000000
1 202 1.288730172 4.017454428 4.9004685336 0 0 0 0 0 0 0.000000
1 203 1.1902768937 6.00970053 3.5350620192 0 0 0 0 0 0 0.000000
1 204 3.5168027278 6.00970053 4.1632810003 0 0 0 0 0 0 0.000000
1 205 8.4697789409 4.0044416596 7.2054819401 0 0 0 0 0 0 0.000000
1 206 10.3960277778 6.00970053 6.6611206181 0 0 0 0 0 0 0.000000
1 207 2.3561758337 4.0769244109 0.0608990594 0 0 0 0 0 0 0.000000
1 208 4.6139909129 4.000762445 0.9377088467 0 0 0 0 0 0 0.000000
1 209 4.2922025966 6.00970053 6.9348200938 0 0 0 0 0 0 0.000000
1 210 6.5587967536 6.00970053 0.3890585685 0 0 0 0 0 0 0.000000
1 211 0.8618952537 4.1116848097 1.9575034257 0 0 0 0 0 0 0.000000
1 212 0.2796972485 6.00970053 7.2715104023 0 0 0 0 0 0 0.000000
1 213 2.6390009071 6.00970053 1.4731174964 0 0 0 0 0 0 0.000000
1 214 0.1573508757 3.2261530433 7.2585143382 0 0 0 0 0 0 0.000000
2 215 17.38 4.97 5.48 0.34921400 726.57121266 0.14041400 1.405937 0.263452 0.210086 1.394672
2 216 18.34 5.49 2.92 0.30321400 708.06787385 -0.00448600 1.384091 0.247847 0.143298 1.331218
2 217 18.34 6.52 2.92 0.30311400 708.02808228 -0.00468600 1.385281 0.247186 0.142719 0.000000
2 218 18.45 1.47 2.91 0.16301400 656.57566835 -0.01168600 1.375062 0.222005 0.149514 1.361844
2 219 18.45 2.53 2.91 0.16301400 656.75682563 -0.01178600 1.374802 0.221401 0.148422 1.362005
2 220 18.6 2.94 2.25 0.26831400 695.61865576 -0.01178600 1.395680 0.225333 0.149219 1.361953
2 221 18.6 1.05706596 2.25 0.26831400 696.44291151 -0.01168600 1.394110 0.224691 0.148830 1.362821
2 222 18.87 5.07 3.42 0.36461400 727.07588412 -0.00338600 1.401606 0.251454 0.143128 1.333519
2 223 18.87 6.94 3.42 0.36461400 724.30171315 -0.00348600 1.401341 0.251982 0.143318 1.335475
2 224 18.88 1.13 3.28 0.19971400 682.35596803 -0.01198600 1.393127 0.212128 0.147677 1.361434
2 225 18.88 2.86 3.28 0.19971400 672.45432487 -0.01188600 1.392216 0.211416 0.147842 1.362569
2 226 19.63 1.64 3.94 0.20401400 675.88138838 0.03911400 1.376893 0.230725 0.166604 1.359097
2 227 19.63 2.36 3.94 0.20401400 676.42392303 0.03891400 1.376605 0.230645 0.166567 1.358333
2 228 20.08 4.39 5.37 0.30771400 677.77208726 0.05341400 1.332836 0.213154 0.157986 1.337728
2 229 20.08 7.61 5.37 0.30771400 678.15245524 0.07791400 1.328302 0.200373 0.157760 0.000000
2 230 20.12 3.62 5.4 0.19671400 694.01857049 0.04771400 1.345369 0.215047 0.165512 1.335333
2 231 20.12 0.37706596 5.4 0.19671400 692.68444162 0.04771400 1.347086 0.214181 0.166040 1.336053
2 232 20.21 3.56 6.0 0.19671400 633.49746698 0.05181400 1.344415 0.214610 0.164755 1.334097
2 233 20.21 0.43706596 6.0 0.19671400 632.56542195 0.04771400 1.344223 0.214601 0.165690 1.334306
2 234 20.42 1.59 3.84 0.32981400 717.17178266 -0.25368600 1.374529 0.227119 0.153160 1.359414
2 235 20.42 2.41 3.84 0.32981400 717.70866408 0.03821400 1.373868 0.225702 0.152025 1.359685
2 236 20.48 3.59 2.25 0.03911400 612.46380174 -0.11778600 1.369281 0.203242 0.159978 0.000000
2 237 20.48 0.40706596 2.25 0.03911400 612.31661076 -0.11828600 1.368240 0.203026 0.157695 1.347931
2 238 20.49 4.47 2.29 0.04501400 585.84880890 -0.09248600 1.358184 0.212361 0.170791 1.337788
2 239 20.49 7.54 2.29 0.04501400 586.30720286 -0.09258600 1.358855 0.213298 0.170412 1.340184
2 240 20.68 3.4 1.76 0.03881400 595.54727832 -0.11818600 1.362832 0.199931 0.158077 1.352483
2 241 20.68 0.59706596 1.76 0.03881400 593.98250704 -0.11768600 1.362674 0.200613 0.157561 1.349805
2 242 20.98 5.0 3.07 0.26211400 662.61165901 0.02321400 1.398086 0.256771 0.195162 1.345313
2 243 20.98 7.01 3.07 0.26221400 661.95472580 0.02391400 1.398689 0.254848 0.196491 1.354298
2 244 21.09 2.0 1.19 0.26121400 655.87247032 0.07451400 1.458139 0.237667 0.189957 1.402223
2 245 21.28 2.75 1.69 0.13761400 619.00318056 0.00731400 1.369816 0.218235 0.176452 1.352915
2 246 21.28 1.23706596 1.69 0.13761400 618.65450018 0.00711400 1.369251 0.216045 0.174144 1.353694
2 247 21.49 5.61 2.22 -0.02428600 554.56914870 -0.11858600 1.341527 0.175870 0.145895 0.000000
2 248 21.49 6.4 2.22 -0.02428600 554.13691920 -0.11878600 1.342063 0.176605 0.142089 0.000000
2 249 21.52 2.47 2.29 0.17061400 642.50218748 0.00401400 1.385324 0.230409 0.182093 1.359194
2 250 21.52 1.52706596 2.29 0.17061400 642.76498901 0.00411400 1.384902 0.229892 0.182723 0.000000
2 251 21.54 3.55 3.89 0.35801400 723.82520349 0.05541400 1.384932 0.253758 0.173379 1.349050
2 252 21.63 2.0 6.48 0.24011400 643.60924767 0.12791400 nan 0.199127 0.159389 1.338467
2 253 21.68 4.58 6.94 0.29831400 661.99025514 -0.02598600 1.390980 0.254418 0.135272 0.000000
2 254 21.68 7.43 6.94 0.29831400 658.18723787 -0.00638600 1.391241 0.252900 0.165721 0.000000
2 255 21.7 2.6 6.1 0.25441400 665.53381553 0.08721400 1.338743 0.222774 0.181185 1.322711
2 256 21.7 1.39706596 6.1 0.25431400 666.62923749 0.08621400 1.342630 0.223825 0.179134 1.324082
2 257 21.78 5.72 5.92 0.15781400 650.19134936 -0.01198600 1.336704 0.153683 0.159482 1.332216
2 258 21.78 6.29 5.92 0.15781400 650.30798325 -0.01178600 1.336095 0.161364 0.159421 1.331049
2 259 21.86 5.76 5.46 0.15791400 697.71930047 -0.01088600 1.339205 0.147396 0.159524 1.330185
2 260 21.86 6.25 5.46 0.15781400 697.24639969 -0.00958600 1.338542 0.148803 0.160541 1.330131
2 261 21.89 4.71 0.88965009 -0.00978600 596.69541131 -0.12328600 1.357373 0.190531 0.158363 1.344519
2 262 21.89 7.3 0.88965009 -0.00978600 597.15020984 -0.12358600 1.357807 0.190283 0.158089 1.343435
2 263 22.05 2.0 7.1 0.28471400 664.66774601 0.11251400 1.392865 0.218964 0.175055 1.357746
2 264 22.19 5.17 6.55 0.27551400 661.82273750 -0.03108600 1.392788 0.235028 0.135968 0.000000
2 265 22.19 6.84 6.55 0.27551400 660.84400936 -0.04158600 1.392919 0.234317 0.135019 1.317580
2 266 22.37 3.58 4.01 0.25621400 688.71388047 0.05551400 1.383708 0.245389 0.175629 1.354046
2 267 22.37 0.41706596 4.01 0.25621400 688.24821407 0.05551400 1.382581 0.245805 0.174404 1.347120
2 268 22.4 4.44 3.99 0.32511400 701.90166595 0.05571400 1.384438 0.252898 0.157156 1.341216
2 269 22.4 7.57 3.99 0.32511400 702.03555758 0.05541400 1.383978 0.253057 0.159410 1.341020
2 270 23.09 3.1 3.37 0.27391400 698.77036996 -0.04808600 1.387819 0.239958 0.150514 1.361664
2 271 23.09 0.89706596 3.37 0.27391400 697.86711220 -0.33858600 1.386429 0.239405 0.139793 1.361653
2 272 23.13 4.91 3.36 0.28851400 702.50633287 -0.01128600 1.397822 0.223174 0.142161 0.000000
2 273 23.13 7.1 3.36 0.28851400 703.50689133 -0.00848600 1.397808 0.224867 0.142853 1.347551
2 274 23.41 3.06 2.28 0.32141400 715.75336751 -0.04608600 1.402225 0.239656 0.141388 1.359291
2 275 23.41 0.93706596 2.28 0.32141400 714.91698541 -0.04728600 1.402019 0.240128 0.139677 1.360379
2 276 23.46 4.9 2.4 0.22831400 735.19411661 -0.01058600 1.372535 0.228887 0.143501 1.348233
2 277 23.46 7.11 2.4 0.22831400 736.87566038 -0.00948600 1.372097 0.228890 0.143518 1.347694
2 278 23.58 3.48 2.95 0.23211400 679.86028748 -0.04678600 1.379444 0.235200 0.141960 1.356605
2 279 23.58 0.51706596 2.95 0.23211400 679.71857919 -0.04688600 1.379957 0.235237 0.141553 1.356954
2 280 23.59 4.54 2.95 0.22831400 684.11994069 -0.00588600 1.372277 0.228185 0.143350 0.000000
2 281 23.59 7.47 2.95 0.22831400 683.47473353 -0.00938600 1.371438 0.228445 0.144147 1.346949
2 282 23.95 3.45 6.02 0.33671400 717.14369786 0.06581400 1.388463 0.252897 0.189938 1.383150
2 283 23.95 0.53706596 6.02 0.33671400 717.19323303 0.07061400 1.388765 0.252401 0.188093 1.382434
2 284 24.23 2.98 6.77 0.34871400 718.94873297 0.06541400 1.405243 0.257730 0.189541 1.381773
2 285 24.24 1.58 4.72 0.27881400 699.48707910 0.08841400 1.399185 0.253587 0.201261 1.378086
2 286 24.24 2.42 4.72 0.27881400 699.59679588 0.08841400 1.399093 0.253540 0.200676 1.376706
2 287 24.53 1.06 5.56 0.25121400 691.19003716 0.06421400 1.407899 0.248856 0.189662 1.382027
2 288 24.53 2.94 5.56 0.25121400 689.76691243 0.06411400 1.406648 0.249099 0.189063 1.381328
2 289 24.77 1.48 6.25 0.25301400 688.93761059 0.06201400 1.396583 0.250016 0.192389 1.383986
2 290 24.77 2.51 6.25 0.25301400 689.02412106 0.06201400 1.396565 0.249860 0.191888 1.381433
2 291 19.94 4.66 7.06 -0.06158600 569.09524138 -0.11608600 1.314255 0.152999 0.137100 1.315232
2 292 19.94 7.35 7.06 -0.06078600 568.74570880 -0.11588600 nan 0.157018 0.136703 1.315901
2 293 19.96 4.66 6.92 -0.06158600 560.42469987 -0.11608600 1.315736 0.153205 0.136807 1.314350
2 294 19.96 7.35 6.92 -0.06158600 561.02388187 -0.11598600 1.315522 0.154035 0.137157 1.315068
2 295 19.98 4.85 6.64 -0.06158600 573.37318665 -0.11588600 1.315042 0.153801 0.137188 1.315696
2 296 19.98 7.16 6.64 -0.06158600 575.09331195 -0.11608600 1.314098 0.153221 0.135513 1.314143
2 297 20.24 4.58 6.45 -0.06148600 555.36432169 -0.11618600 nan 0.151976 0.136685 1.315291
2 298 20.24 7.43 6.45 -0.06158600 556.16768277 -0.11618600 1.315529 0.153400 0.136470 1.314394
2 299 20.32 4.64 6.5 -0.06158600 559.24566160 -0.11608600 1.315438 0.153840 0.136542 1.314228
2 300 20.32 7.37 6.5 -0.06158600 560.20203585 -0.11618600 1.316667 0.154577 0.136185 1.314565
2 301 20.83 4.89 1.49 -0.07438600 506.47320981 -0.11718600 1.347117 0.149062 0.127502 1.334929
2 302 20.83 7.12 1.49 -0.07438600 506.34750964 -0.40898600 1.346586 0.150147 0.127068 0.000000
2 303 20.94 4.62 1.23 -0.07438600 513.71572288 -0.11668600 1.345414 0.148653 0.126941 1.332786
2 304 20.94 7.39 1.23 -0.07438600 512.97377993 -0.11688600 1.345784 0.149632 0.126595 1.332282
2 305 21.31 5.42 1.74 -0.02428600 514.07018387 -0.34918600 1.342561 0.176178 0.144707 1.341918
2 306 21.31 6.59 1.74 -0.02428600 513.97412357 -0.11898600 1.345064 0.174757 0.145149 1.342293
2 307 21.77 4.58 0.83965009 -0.00978600 584.61523489 -0.12338600 1.357106 0.189981 0.159435 1.342999
2 308 21.77 7.43 0.83965009 -0.00978600 584.66367128 -0.12348600 1.357773 0.189853 0.157711 1.344063
