ITEM: TIMESTEP
0
ITEM: NUMBER OF ATOMS
313
ITEM: BOX BOUNDS pp pp pp
0.0 42.02192664
0.0 8.01293404
0.0 7.36034991
ITEM: ATOMS type id x y z SE CD SE_NF BC ZPE ZPE_NF BC_NF
1 1 29.8088490987 0.0 7.0660576639 0 0 0 0 0 0 0.000000
1 2 25.9702728654 0.0 5.9714704853 0 0 0 1.407096 0 0 0.000000
1 3 27.8896787246 2.0031223464 6.5169096589 0 0 0 0 0 0 0.000000
1 4 22.3875504133 0.0 4.9737526002 0 0 0 0 0 0 0.000000
1 5 23.699117944 0.0 6.8343180339 0 0 0 0 0 0 0.000000
1 6 23.9980756919 1.9952300733 5.4355546948 0 0 0 0 0 0 0.000000
1 7 25.5930511348 2.0022607468 7.3287234444 0 0 0 0 0 0 0.000000
1 8 38.6273132389 2.0040466284 5.1657091015 0 0 0 0 0 0 0.000000
1 9 38.2433752946 0.0 6.5337518198 0 0 0 0 0 0 0.000000
1 10 40.1322964426 2.0022909014 7.1121206067 0 0 0 0 0 0 0.000000
1 11 34.4079806681 0.0 5.4352584509 0 0 0 0 0 0 0.000000
1 12 35.9422381709 0.0 7.3463931751 0 0 0 0 0 0 0.000000
1 13 36.3196995187 2.0031652082 5.9841804144 0 0 0 0 0 0 0.000000
1 14 30.5749741138 0.0 4.3398099605 0 0 0 0 0 0 0.000000
1 15 32.1050326478 0.0 6.2501847616 0 0 0 0 0 0 0.000000
1 16 32.4952119879 2.0031819551 4.888803316 0 0 0 0 0 0 0.000000
1 17 34.0218063809 2.0033672842 6.7979397082 0 0 0 0 0 0 0.000000
1 18 26.7284701069 0.0 3.242915267 0 0 0 0 0 0 0.000000
1 19 28.2759343883 0.0 5.1504563653 0 0 0 0 0 0 0.000000
1 20 28.6464674792 2.0029888743 3.7918513776 0 0 0 0 0 0 0.000000
1 21 30.1912446884 2.003466835 5.702544816 0 0 0 0 0 0 0.000000
1 22 24.4637021708 0.0 4.0250935859 0 0 0 0 0 0 0.000000
1 23 22.3631097598 2.0424104884 3.5680520913 0 0 0 0 0 0 0.000000
1 24 26.3388300466 2.0030523055 4.5956686112 0 0 0 0 0 0 0.000000
1 25 20.8803125817 2.0020185353 5.7450285089 0 0 0 0 0 0 0.000000
1 26 39.0094888255 0.0 3.7995545218 0 0 0 0 0 0 0.000000
1 27 40.5690502026 0.0 5.7026407882 0 0 0 0 0 0 0.000000
1 28 0.1695017553 2.0334959943 6.1534743911 0 0 0 0 0 0 0.000000
1 29 35.1731739862 0.0 2.708783855 0 0 0 0 0 0 0.000000
1 30 36.7099622063 0.0 4.6159269696 0 0 0 0 0 0 0.000000
1 31 37.1006287851 2.0037025869 3.2515915235 0 0 0 0 0 0 0.000000
1 32 40.9072836597 1.9916236439 4.2976029013 0 0 0 0 0 0 0.000000
1 33 31.3387961653 0.0 1.6166590056 0 0 0 0 0 0 0.000000
1 34 32.8742990943 0.0 3.5251125583 0 0 0 0 0 0 0.000000
1 35 33.2527849659 2.0032655959 2.1635888423 0 0 0 0 0 0 0.000000
1 36 34.7926449609 2.0032534329 4.0698586398 0 0 0 0 0 0 0.000000
1 37 27.5020443919 0.0 0.5249316814 0 0 0 0 0 0 0.000000
1 38 29.0331327138 0.0 2.4317181949 0 0 0 0 0 0 0.000000
1 39 29.4221592416 2.0033175427 1.0690705634 0 0 0 0 0 0 0.000000
1 40 30.9527486457 2.0034391773 2.9797780861 0 0 0 0 0 0 0.000000
1 41 25.1750147512 0.0 1.3509372628 0 0 0 0 0 0 0.000000
1 42 27.1017303011 2.0028096805 1.8851819903 0 0 0 0 0 0 0.000000
1 43 21.1815250513 0.0 7.1474059406 0 0 0 0 0 0 0.000000
1 44 23.3372777661 2.0131282665 0.7069846329 0 0 0 0 0 0 0.000000
1 45 39.8308269563 0.0 1.0762671178 0 0 0 0 0 0 0.000000
1 46 41.2723378403 0.0 3.0385990946 0 0 0 0 0 0 0.000000
1 47 24.7424129807 2.0006372614 2.6909763328 0 0 0 0 0 0 0.000000
1 48 37.4853503208 0.0 1.8894614794 0 0 0 0 0 0 0.000000
1 49 37.8595319185 2.003444485 0.531993136 0 0 0 0 0 0 0.000000
1 50 39.4171083086 2.0038957041 2.4229462593 0 0 0 0 0 0 0.000000
1 51 33.640274554 0.0 0.8011974558 0 0 0 0 0 0 0.000000
1 52 35.5585116004 2.0037369381 1.3470670367 0 0 0 0 0 0 0.000000
1 53 31.7229925928 2.0033259034 0.2539480259 0 0 0 0 0 0 0.000000
1 54 29.8059179701 4.00646702 7.0677569183 0 0 0 0 0 0 0.000000
1 55 25.9728210966 4.00646702 5.9618767774 0 0 0 0 0 0 0.000000
1 56 27.8896787246 6.0098116936 6.5169096589 0 0 0 0 0 0 0.000000
1 57 22.395167589 4.00646702 4.9751369121 0 0 0 0 0 0 0.000000
1 58 23.7180781052 4.00646702 6.8241250381 0 0 0 0 0 0 0.000000
1 59 23.9980756919 6.0177039667 5.4355546948 0 0 0 0 0 0 0.000000
1 60 25.5930511348 6.0106732932 7.3287234444 0 0 0 0 0 0 0.000000
1 61 38.6273132389 6.0088874116 5.1657091015 0 0 0 0 0 0 0.000000
1 62 38.2492236315 4.00646702 6.5345721235 0 0 0 0 0 0 0.000000
1 63 40.1322964426 6.0106431386 7.1121206067 0 0 0 0 0 0 0.000000
1 64 34.4090541766 4.00646702 5.4350932188 0 0 0 0 0 0 0.000000
1 65 35.9446242798 4.00646702 7.345382541 0 0 0 0 0 0 0.000000
1 66 36.3196995187 6.0097688318 5.9841804144 0 0 0 0 0 0 0.000000
1 67 30.5748675372 4.00646702 4.3403083715 0 0 0 0 0 0 0.000000
1 68 32.1046983185 4.00646702 6.2503594676 0 0 0 0 0 0 0.000000
1 69 32.4952119879 6.0097520849 4.888803316 0 0 0 0 0 0 0.000000
1 70 34.0218063809 6.0095667558 6.7979397082 0 0 0 0 0 0 0.000000
1 71 26.729552007 4.00646702 3.2416937612 0 0 0 0 0 0 0.000000
1 72 28.2762673422 4.00646702 5.150278828 0 0 0 0 0 0 0.000000
1 73 28.6464674792 6.0099451657 3.7918513776 0 0 0 0 0 0 0.000000
1 74 30.1912446884 6.009467205 5.702544816 0 0 0 0 0 0 0.000000
1 75 22.6564623983 4.00646702 2.1155416905 0 0 0 0 0 0 0.000000
1 76 24.4580319733 4.00646702 4.0105525589 0 0 0 0 0 0 0.000000
1 77 22.3631097598 5.9705235516 3.5680520913 0 0 0 0 0 0 0.000000
1 78 26.3388300466 6.0098817345 4.5956686112 0 0 0 0 0 0 0.000000
1 79 20.8803125817 6.0109155047 5.7450285089 0 0 0 0 0 0 0.000000
1 80 39.0108226032 4.00646702 3.798899658 0 0 0 0 0 0 0.000000
1 81 40.5864664766 4.00646702 5.684004341 0 0 0 0 0 0 0.000000
1 82 0.1695017553 5.9794380457 6.1534743911 0 0 0 0 0 0 0.000000
1 83 35.1737627678 4.00646702 2.709269431 0 0 0 0 0 0 0.000000
1 84 36.71047035 4.00646702 4.6171305094 0 0 0 0 0 0 0.000000
1 85 37.1006287851 6.0092314531 3.2515915235 0 0 0 0 0 0 0.000000
1 86 40.9072836597 6.0213103961 4.2976029013 0 0 0 0 0 0 0.000000
1 87 31.3390071038 4.00646702 1.6169654591 0 0 0 0 0 0 0.000000
1 88 32.8739866505 4.00646702 3.5255333626 0 0 0 0 0 0 0.000000
1 89 33.2527849659 6.0096684441 2.1635888423 0 0 0 0 0 0 0.000000
1 90 34.7926449609 6.0096806071 4.0698586398 0 0 0 0 0 0 0.000000
1 91 27.4971767622 4.00646702 0.5219553321 0 0 0 0 0 0 0.000000
1 92 29.0324751166 4.00646702 2.4311600053 0 0 0 0 0 0 0.000000
1 93 29.4221592416 6.0096164973 1.0690705634 0 0 0 0 0 0 0.000000
1 94 30.9527486457 6.0094948627 2.9797780861 0 0 0 0 0 0 0.000000
1 95 25.1749726364 4.00646702 1.3512607575 0 0 0 0 0 0 0.000000
1 96 27.1017303011 6.0101243595 1.8851819903 0 0 0 0 0 0 0.000000
1 97 21.2157689023 4.00646702 7.1631758611 0 0 0 0 0 0 0.000000
1 98 23.3372777661 5.9998057735 0.7069846329 0 0 0 0 0 0 0.000000
1 99 39.8387297452 4.00646702 1.0731427189 0 0 0 0 0 0 0.000000
1 100 41.2733646889 4.00646702 3.0434302111 0 0 0 0 0 0 0.000000
1 101 24.7424129807 6.0122967786 2.6909763328 0 0 0 0 0 0 0.000000
1 102 37.4874857731 4.00646702 1.8885160517 0 0 0 0 0 0 0.000000
1 103 37.8595319185 6.009489555 0.531993136 0 0 0 0 0 0 0.000000
1 104 39.4171083086 6.0090383359 2.4229462593 0 0 0 0 0 0 0.000000
1 105 33.6403552966 4.00646702 0.8010783852 0 0 0 0 0 0 0.000000
1 106 35.5585116004 6.0091971019 1.3470670367 0 0 0 0 0 0 0.000000
1 107 31.7229925928 6.0096081366 0.2539480259 0 0 0 0 0 0 0.000000
1 108 20.2613745303 0.0 4.3217508154 0 0 0 0 0 0 0.000000
1 109 16.4743870108 0.0 5.4708884206 0 0 0 0 0 0 0.000000
1 110 18.8198636363 0.0 6.2840827922 0 0 0 0 0 0 0.000000
1 111 18.4061449886 2.0038957041 4.9374036507 0 0 0 0 0 0 0.000000
1 112 3.7314496607 2.0006372614 4.6693735772 0 0 0 0 0 0 0.000000
1 113 12.629311244 0.0 6.5591524442 0 0 0 0 0 0 0.000000
1 114 14.5475482804 2.0037369381 6.0132828733 0 0 0 0 0 0 0.000000
1 115 16.8485686085 2.003444485 6.828356764 0 0 0 0 0 0 0.000000
1 116 19.5580868926 0.0 1.6577091118 0 0 0 0 0 0 0.000000
1 117 15.6989988963 0.0 2.7444229304 0 0 0 0 0 0 0.000000
1 118 17.9985255055 0.0 3.5607953882 0 0 0 0 0 0 0.000000
1 119 19.8963203397 1.9916236439 3.0627470087 0 0 0 0 0 0 0.000000
1 120 21.1804650853 2.0334959943 1.2068755189 0 0 0 0 0 0 0.000000
1 121 11.8633357843 0.0 3.8352373517 0 0 0 0 0 0 0.000000
1 122 14.1622106662 0.0 4.651566055 0 0 0 0 0 0 0.000000
1 123 13.7816816409 2.0032534329 3.2904912702 0 0 0 0 0 0 0.000000
1 124 16.0896654751 2.0037025869 4.1087583765 0 0 0 0 0 0 0.000000
1 125 8.0221693938 0.0 4.9286317151 0 0 0 0 0 0 0.000000
1 126 10.3278328453 0.0 5.7436909044 0 0 0 0 0 0 0.000000
1 127 9.9417853257 2.0034391773 4.3805718239 0 0 0 0 0 0 0.000000
1 128 12.2418216559 2.0032655959 5.1967610577 0 0 0 0 0 0 0.000000
1 129 4.1640514312 0.0 6.0094126472 0 0 0 0 0 0 0.000000
1 130 6.4910810719 0.0 6.8354182186 0 0 0 0 0 0 0.000000
1 131 6.0907669811 2.0028096805 5.4751679097 0 0 0 0 0 0 0.000000
1 132 8.4111959316 2.0033175427 6.2912793466 0 0 0 0 0 0 0.000000
1 133 2.3263144461 2.0131282665 6.6533652671 0 0 0 0 0 0 0.000000
1 134 14.9312748509 0.0 0.0139567249 0 0 0 0 0 0 0.000000
1 135 17.2324119746 0.0 0.8265980902 0 0 0 0 0 0 0.000000
1 136 19.1213331226 2.0022909014 0.2482292933 0 0 0 0 0 0 0.000000
1 137 11.0940693278 0.0 1.1101651484 0 0 0 0 0 0 0.000000
1 138 13.3970173481 0.0 1.9250914591 0 0 0 0 0 0 0.000000
1 139 13.0108430709 2.0033672842 0.5624102018 0 0 0 0 0 0 0.000000
1 140 15.3087361987 2.0031652082 1.3761694856 0 0 0 0 0 0 0.000000
1 141 7.2649710683 0.0 2.2098935447 0 0 0 0 0 0 0.000000
1 142 9.5640108038 0.0 3.0205399495 0 0 0 0 0 0 0.000000
1 143 9.1802813784 2.003466835 1.657805084 0 0 0 0 0 0 0.000000
1 144 11.4842486679 2.0031819551 2.471546594 0 0 0 0 0 0 0.000000
1 145 3.4527388508 0.0 3.3352563241 0 0 0 0 0 0 0.000000
1 146 5.7175067969 0.0 4.117434633 0 0 0 0 0 0 0.000000
1 147 5.3278667366 2.0030523055 2.7646812888 0 0 0 0 0 0 0.000000
1 148 7.6355041592 2.0029888743 3.5684985324 0 0 0 0 0 0 0.000000
1 149 41.8912759117 2.0020185353 1.6153214011 0 0 0 0 0 0 0.000000
1 150 1.3521464398 2.0424104884 3.7922978187 0 0 0 0 0 0 0.000000
1 151 8.7978857887 0.0 0.2942922361 0 0 0 0 0 0 0.000000
1 152 10.7120292728 2.0033259034 7.1064018841 0 0 0 0 0 0 0.000000
1 153 2.688154624 0.0 0.5260318761 0 0 0 0 0 0 0.000000
1 154 4.9593095554 0.0 1.3888794147 0 0 0 0 0 0 0.000000
1 155 4.5820878248 2.0022607468 0.0316264556 0 0 0 0 0 0 0.000000
1 156 6.8787154046 2.0031223464 0.8434402511 0 0 0 0 0 0 0.000000
1 157 1.3765871033 0.0 2.3865973098 0 0 0 0 0 0 0.000000
1 158 17.6163499189 2.0040466284 2.1946408085 0 0 0 0 0 0 0.000000
1 159 2.9871123719 1.9952300733 1.9247952152 0 0 0 0 0 0 0.000000
1 160 0.1705617313 0.0 0.2129439694 0 0 0 0 0 0 0.000000
1 161 20.2624013789 4.00646702 4.3169196989 0 0 0 0 0 0 0.000000
1 162 16.4765224631 4.00646702 5.4718338483 0 0 0 0 0 0 0.000000
1 163 18.8277664252 4.00646702 6.2872071911 0 0 0 0 0 0 0.000000
1 164 18.4061449886 6.0090383359 4.9374036507 0 0 0 0 0 0 0.000000
1 165 3.7314496607 6.0122967786 4.6693735772 0 0 0 0 0 0 0.000000
1 166 12.6293919866 4.00646702 6.5592715148 0 0 0 0 0 0 0.000000
1 167 14.5475482804 6.0091971019 6.0132828733 0 0 0 0 0 0 0.000000
1 168 16.8485686085 6.009489555 6.828356764 0 0 0 0 0 0 0.000000
1 169 19.5755031666 4.00646702 1.676345559 0 0 0 0 0 0 0.000000
1 170 15.69950704 4.00646702 2.7432193906 0 0 0 0 0 0 0.000000
1 171 17.9998592832 4.00646702 3.561450252 0 0 0 0 0 0 0.000000
1 172 19.8963203397 6.0213103961 3.0627470087 0 0 0 0 0 0 0.000000
1 173 21.1804650853 5.9794380457 1.2068755189 0 0 0 0 0 0 0.000000
1 174 11.8630233405 4.00646702 3.8348165474 0 0 0 0 0 0 0.000000
1 175 14.1627994478 4.00646702 4.651080479 0 0 0 0 0 0 0.000000
1 176 13.7816816409 6.0096806071 3.2904912702 0 0 0 0 0 0 0.000000
1 177 16.0896654751 6.0092314531 4.1087583765 0 0 0 0 0 0 0.000000
1 178 8.0215117966 4.00646702 4.9291899047 0 0 0 0 0 0 0.000000
1 179 10.3280437838 4.00646702 5.7433844509 0 0 0 0 0 0 0.000000
1 180 9.9417853257 6.0094948627 4.3805718239 0 0 0 0 0 0 0.000000
1 181 12.2418216559 6.0096684441 5.1967610577 0 0 0 0 0 0 0.000000
1 182 4.1640093164 4.00646702 6.0090891525 0 0 0 0 0 0 0.000000
1 183 6.4862134422 4.00646702 6.8383945679 0 0 0 0 0 0 0.000000
1 184 6.0907669811 6.0101243595 5.4751679097 0 0 0 0 0 0 0.000000
1 185 8.4111959316 6.0096164973 6.2912793466 0 0 0 0 0 0 0.000000
1 186 2.3263144461 5.9998057735 6.6533652671 0 0 0 0 0 0 0.000000
1 187 14.9336609598 4.00646702 0.014967359 0 0 0 0 0 0 0.000000
1 188 17.2382603115 4.00646702 0.8257777865 0 0 0 0 0 0 0.000000
1 189 19.1213331226 6.0106431386 0.2482292933 0 0 0 0 0 0 0.000000
1 190 11.0937349985 4.00646702 1.1099904424 0 0 0 0 0 0 0.000000
1 191 13.3980908566 4.00646702 1.9252566912 0 0 0 0 0 0 0.000000
1 192 13.0108430709 6.0095667558 0.5624102018 0 0 0 0 0 0 0.000000
1 193 15.3087361987 6.0097688318 1.3761694856 0 0 0 0 0 0 0.000000
1 194 7.2653040222 4.00646702 2.210071082 0 0 0 0 0 0 0.000000
1 195 9.5639042272 4.00646702 3.0200415385 0 0 0 0 0 0 0.000000
1 196 9.1802813784 6.009467205 1.657805084 0 0 0 0 0 0 0.000000
1 197 11.4842486679 6.0097520849 2.471546594 0 0 0 0 0 0 0.000000
1 198 3.4470686533 4.00646702 3.3497973511 0 0 0 0 0 0 0.000000
1 199 5.7185886969 4.00646702 4.1186561388 0 0 0 0 0 0 0.000000
1 200 5.3278667366 6.0098817345 2.7646812888 0 0 0 0 0 0 0.000000
1 201 7.6355041592 6.0099451657 3.5684985324 0 0 0 0 0 0 0.000000
1 202 1.6454990883 4.00646702 5.2448082095 0 0 0 0 0 0 0.000000
1 203 41.8912759117 6.0109155047 1.6153214011 0 0 0 0 0 0 0.000000
1 204 1.3521464398 5.9705235516 3.7922978187 0 0 0 0 0 0 0.000000
1 205 8.7949546601 4.00646702 0.2925929817 0 0 0 0 0 0 0.000000
1 206 10.7120292728 6.0096081366 7.1064018841 0 0 0 0 0 0 0.000000
1 207 2.7071147852 4.00646702 0.5362248719 0 0 0 0 0 0 0.000000
1 208 4.9618577866 4.00646702 1.3984731226 0 0 0 0 0 0 0.000000
1 209 4.5820878248 6.0106732932 0.0316264556 0 0 0 0 0 0 0.000000
1 210 6.8787154046 6.0098116936 0.8434402511 0 0 0 0 0 0 0.000000
1 211 1.384204279 4.00646702 2.3852129979 0 0 0 0 0 0 0.000000
1 212 17.6163499189 6.0088874116 2.1946408085 0 0 0 0 0 0 0.000000
1 213 2.9871123719 6.0177039667 1.9247952152 0 0 0 0 0 0 0.000000
1 214 0.2048055823 4.00646702 0.1971740489 0 0 0 0 0 0 0.000000
2 215 19.39 1.49 6.1 0.37401400 725.16582227 0.14561400 1.406899 0.265657 0.203177 1.381692
2 216 19.39 5.5 6.1 0.36921400 721.60106432 0.14001400 1.410987 0.266389 0.203515 1.381489
2 217 19.63 1.05 5.37 0.38071400 728.33863657 0.15331400 1.410130 0.263510 0.201509 1.384716
2 218 19.63 6.96 5.37 0.38071400 727.63782927 0.15261400 1.410410 0.263519 0.200837 0.000000
2 219 20.01 1.01 6.68 0.37201400 722.27539689 0.24011400 1.415154 0.260677 0.188111 1.406156
2 220 20.01 6.99 6.68 0.37201400 723.10346289 0.17231400 1.413619 0.260686 0.214552 1.403427
2 221 20.02 2.99 6.7 0.34021400 712.97391892 0.15211400 1.415672 0.257185 0.214858 0.000000
2 222 20.02 5.01 6.7 0.34021400 713.45426119 0.15351400 1.415806 0.257116 0.214347 1.405438
2 223 20.31 0.48 5.86 0.35421400 725.07213455 0.16361400 1.389135 0.254685 0.206526 0.000000
2 224 20.31 7.52 5.86 0.35421400 725.92447910 0.16361400 1.389279 0.254710 0.205763 1.383038
2 225 20.33 3.53 5.87 0.30491400 713.59803577 0.11821400 1.391047 0.248376 0.191085 1.378991
2 226 20.33 4.48 5.87 0.30491400 713.96547184 0.11771400 1.391585 0.248397 0.189929 1.380778
2 227 20.93 2.52 4.2 0.27071400 686.26207737 0.05341400 1.406255 0.249330 0.193465 0.000000
2 228 20.93 5.48 4.2 0.27061400 686.32012442 0.05261400 1.406546 0.249305 0.194441 1.391735
2 229 20.96 1.47 4.19 0.25811400 688.83607403 0.03851400 1.408925 0.237947 0.190641 1.388080
2 230 20.96 6.53 4.19 0.25811400 688.50932623 0.03851400 1.408376 0.238023 0.186706 0.000000
2 231 21.12 0.4 1.36965009 0.39091400 656.42751308 0.14701400 1.464298 0.281440 0.233530 1.452654
2 232 21.12 7.61 1.37 0.39091400 657.13453626 0.14711400 1.464297 0.281508 0.234012 0.000000
2 233 21.18 3.67 1.41965009 0.18711400 619.34771419 0.02721400 1.371049 0.228260 0.185543 1.374232
2 234 21.18 4.33 1.41965009 0.18711400 618.98153652 0.02741400 1.371556 0.229197 0.185781 1.373859
2 235 21.28 1.09 2.63 0.12731400 612.56352112 -0.03108600 1.388620 0.194639 0.152452 1.395849
2 236 21.28 6.91 2.63 0.12731400 613.95395526 -0.03148600 1.387045 0.195006 0.151208 0.000000
2 237 21.37 6.86 4.47 0.25811400 715.85451409 0.04131400 1.407421 0.237659 0.189288 1.387492
2 238 21.66 0.5 3.53 0.41251400 599.75747842 0.04291400 nan 0.204776 0.158802 1.377574
2 239 21.66 7.5 3.53 0.12731400 599.84415868 -0.03018600 1.388235 0.194193 0.149125 1.394634
2 240 21.69 3.61 3.46 0.08671400 560.97490130 -0.00808600 1.321776 0.185359 0.166888 0.000000
2 241 21.69 4.4 3.46 0.08671400 560.18706740 -0.00878600 1.321616 0.185663 0.168216 1.313306
2 242 22.2 0.82 0.76965009 0.17941400 665.66069530 -0.02528600 1.418932 0.230342 0.189203 1.401077
2 243 22.2 7.19 0.77 0.17941400 666.44237429 -0.02558600 1.417993 0.230864 0.189289 1.400773
2 244 22.22 3.19 0.76965009 0.20161400 685.76501397 0.00681400 1.392081 0.226899 0.193335 1.387867
2 245 22.22 4.81 0.76965009 0.20161400 684.55731848 0.00691400 1.391600 0.226854 0.193274 1.387878
2 246 22.39 1.64 5.17 0.16091400 610.91101691 0.00661400 1.367574 0.231894 0.196814 1.350256
2 247 22.39 6.36 5.17 0.16091400 612.55158600 0.00691400 1.366516 0.231545 0.196763 1.350377
2 248 22.4 2.36 5.19 0.18081400 610.65901836 0.02561400 1.366562 0.227979 0.190123 0.000000
2 249 22.4 5.64 5.19 0.18081400 611.68111671 0.02571400 1.365606 0.228370 0.190098 1.359186
2 250 22.5 1.6 2.02 0.34891400 728.94402076 0.05281400 1.408614 0.248089 0.162347 1.408612
2 251 22.5 6.4 2.02 0.34891400 729.51739611 0.05281400 1.408130 0.247536 0.162449 1.399817
2 252 22.55 0.53 0.57965009 0.17941400 640.83975176 -0.02598600 1.417579 0.230951 0.189158 1.398936
2 253 22.55 7.47 0.58 0.17941400 641.08845631 0.43041400 1.416379 0.230909 0.189386 1.401183
2 254 22.59 3.47 0.54965009 0.20161400 664.51067142 0.00711400 1.392730 0.227532 0.193529 1.387100
2 255 22.59 4.53 0.54965009 0.20161400 663.88709366 0.00741400 1.391502 0.227172 0.193462 1.387181
2 256 23.01 0.56 3.59 0.48931400 712.09933881 0.16341400 1.451331 0.265362 0.178906 1.413669
2 257 23.01 7.44 3.59 0.67671400 712.36731413 0.16381400 1.450648 0.264296 nan 0.000000
2 258 23.22 1.48 2.27 0.31891400 677.23648694 0.05721400 1.432152 0.248101 0.161524 1.399951
2 259 23.22 6.52 2.27 0.31891400 677.96039783 0.05141400 1.431628 0.248488 0.161824 1.408438
2 260 23.24 2.48 2.26 0.27181400 707.44015376 0.05071400 1.400523 0.244161 0.162191 1.408091
2 261 23.24 5.52 2.26 0.27181400 706.58706489 0.05301400 1.400281 0.244086 0.161985 1.402118
2 262 23.51 0.96 3.07 0.35641400 668.89507765 0.16491400 1.461626 0.260100 0.215502 1.439939
2 263 23.51 7.05 3.07 0.35641400 669.59189982 0.16381400 1.461611 0.260543 0.214806 1.440626
2 264 23.54 3.03 3.07 0.31811400 702.94640137 0.23321400 1.413293 0.254988 0.209210 1.386321
2 265 23.54 4.97 3.07 0.31811400 703.23963112 0.13091400 1.412924 0.254983 0.208998 1.386138
2 266 23.62 0.43 1.04965009 0.40201400 678.28360142 0.14671400 1.457478 0.280488 0.227520 1.430693
2 267 23.62 7.57 1.05 0.61121400 678.90336660 0.14611400 1.458293 0.281066 0.227744 1.430616
2 268 23.83 1.48 3.91 0.37981400 737.44380543 0.15941400 1.399297 0.258387 0.183146 1.417164
2 269 23.83 6.53 3.91 0.37971400 737.92534300 0.15971400 1.398085 0.258207 0.185291 1.413982
2 270 23.86 0.89 1.81 0.32931400 664.91968051 0.10941400 1.466145 0.268835 0.218127 1.448614
2 271 23.86 7.11 1.81 0.32931400 666.31427769 0.10961400 1.466261 0.269046 0.217821 1.448260
2 272 23.93 3.06 1.78 0.36091400 717.15163183 0.10321400 1.406630 0.258674 0.160348 1.356152
2 273 23.93 4.94 1.78 0.36091400 716.32319422 0.10211400 1.406629 0.258492 0.159071 1.357805
2 274 24.06 0.49 2.48 0.30961400 654.21955426 0.10211400 1.461659 0.269805 0.220285 1.435308
2 275 24.06 7.51 2.48 0.30961400 655.13149319 0.10201400 1.460973 0.269450 0.219828 1.435581
2 276 24.14 3.49 2.5 0.32891400 707.00532538 0.09391400 1.402895 0.257747 0.174983 1.363188
2 277 24.14 4.51 2.5 0.32891400 707.26058444 0.27421400 1.402616 0.257950 0.175658 1.361878
2 278 20.89 0.53 2.73 0.10431400 546.50634359 -0.02528600 1.389381 0.191802 0.149124 0.000000
2 279 20.89 7.47 2.73 0.10471400 548.10180955 0.24091400 nan 0.192158 0.145335 0.000000
2 280 20.95 0.76 2.39 0.10431400 580.66255202 -0.02578600 1.389371 0.190168 0.152765 1.391920
2 281 20.95 7.24 2.39 0.10431400 582.32426408 0.19021400 1.389084 0.187917 0.150227 0.000000
2 282 20.99 3.43 2.71 -0.07338600 512.45393671 -0.12978600 1.327008 0.145210 0.145206 0.000000
2 283 20.99 4.57 2.71 -0.07338600 509.68079559 -0.12978600 1.327184 0.144660 0.144830 1.329915
2 284 21.02 3.29 2.5 -0.07338600 532.84657984 -0.12908600 1.327507 0.141921 0.143317 1.328222
2 285 21.02 4.71 2.5 -0.07338600 531.46543332 -0.12888600 1.328477 0.142528 0.143665 1.327575
2 286 21.18 3.27 2.91 -0.07338600 523.73543634 -0.13118600 1.326830 0.143894 0.144593 1.329880
2 287 21.18 4.73 2.91 -0.07338600 523.22222379 -0.13118600 1.325849 0.143580 0.144445 1.329641
2 288 21.2 0.8 3.05 0.33761400 566.33154721 -0.02988600 1.388654 0.194607 0.150724 1.394687
2 289 21.2 7.21 3.05 0.12731400 566.33629828 -0.03018600 1.388653 0.194398 0.152900 1.396990
2 290 21.24 3.06 2.64 -0.07338600 555.49114891 -0.12918600 1.326782 0.143657 0.143879 1.327026
2 291 21.24 4.94 2.64 -0.07338600 553.29199982 -0.12888600 1.326110 0.143963 0.143510 1.328461
2 292 21.96 1.57 7.06 0.00241400 526.59544085 -0.05488600 1.303834 0.165911 0.155866 1.304982
2 293 21.96 2.42 7.05 0.01421400 530.00470701 -0.04578600 1.302788 0.159501 0.157051 1.298504
2 294 21.96 5.58 7.05 0.01421400 528.56832359 -0.04538600 1.302487 0.178200 0.190771 1.297427
2 295 21.96 6.44 7.06 0.00241400 526.69995399 -0.05658600 1.303635 0.165941 0.154214 1.308113
2 296 22.36 1.15 6.38 -0.08568600 529.12916743 -0.13088600 1.314294 0.142281 0.140461 1.323027
2 297 22.36 6.85 6.38 0.58631400 528.74621627 -0.12858600 1.314900 0.143112 0.140182 1.320741
2 298 22.38 2.83 6.38 1.28031400 525.94139783 -0.12198600 1.319154 0.143098 0.142211 1.323347
2 299 22.38 5.18 6.38 1.28031400 526.01096134 -0.12158600 1.318923 0.143676 0.141667 1.323087
2 300 22.39 1.31 6.6 -0.08568600 504.29100292 -0.12828600 1.314710 0.143805 0.141132 1.322596
2 301 22.39 6.69 6.6 -0.08568600 502.93876683 -0.12868600 1.315892 0.143295 0.141456 1.322637
2 302 22.41 2.68 6.58 -0.08198600 503.81153550 -0.12328600 1.316500 0.143754 0.142998 1.326047
2 303 22.41 5.32 6.58 -0.08198600 505.06660227 -0.12228600 1.316894 0.143706 0.142712 1.327014
2 304 22.5 1.3 6.28 -0.08568600 512.75366586 -0.12828600 1.314916 0.143644 0.141115 1.322361
2 305 22.5 6.71 6.28 -0.08568600 511.89484610 -0.13048600 1.315587 0.142958 0.140560 1.322503
2 306 22.51 2.7 6.29 -0.08198600 512.90229727 -0.12148600 1.319093 0.143621 0.141335 1.322908
2 307 22.51 5.31 6.29 -0.08198600 513.13749657 -0.12148600 1.319161 0.144161 0.143586 1.322770
2 308 22.52 1.42 6.46 -0.08568600 496.66726304 -0.13098600 1.316029 0.143283 0.140627 1.323128
2 309 22.52 2.58 6.46 -0.08198600 497.02172627 -0.12258600 1.319734 0.144143 0.142960 1.326989
2 310 22.52 5.42 6.46 -0.08198600 497.76505494 -0.12148600 1.318727 0.143288 0.141396 1.323945
2 311 22.52 6.58 6.46 0.58611400 495.67297577 -0.13088600 1.316428 0.142786 0.140253 1.323586
3 312 22.5097744631 0.0 2.1687683358 0 0 0 0 0 0 0.000000
3 313 1.4988111531 0.0 5.1915815642 0 0 0 0 0 0 0.000000
