ITEM: TIMESTEP
0
ITEM: NUMBER OF ATOMS
127
ITEM: BOX BOUNDS pp pp pp
0.0 28.19941776
0.0 8.01293404
0.0 4.90689994
ITEM: ATOMS type id x y z SE CD SE_NF BC ZPE ZPE_NF BC_NF
1 1 22.5464106104 2.002038738 0.906262148 0 0 0 0 0 0 0.000000
1 2 21.387578355 0.0 0.0857430989 0 0 0 1.388793 0 0 0.000000
1 3 26.0227359335 0.0 0.9302375395 0 0 0 0 0 0 0.000000
1 4 24.8726583879 2.0039162797 0.0878084967 0 0 0 0 0 0 0.000000
1 5 23.6991314074 0.0 1.7271026013 0 0 0 0 0 0 0.000000
1 6 27.2056336091 1.9916140378 1.7452627174 0 0 0 0 0 0 0.000000
1 7 22.5477078636 2.0041094962 3.3600006746 0 0 0 0 0 0 0.000000
1 8 21.3870915787 0.0 2.5412630089 0 0 0 0 0 0 0.000000
1 9 26.0493582962 0.0 3.3728015382 0 0 0 0 0 0 0.000000
1 10 24.8763097315 2.0003109139 2.5419778256 0 0 0 0 0 0 0.000000
1 11 23.7141484264 0.0 4.1780883721 0 0 0 0 0 0 0.000000
1 12 27.192610784 2.0065898489 4.1957071653 0 0 0 0 0 0 0.000000
1 13 22.5464106104 6.010895302 0.906262148 0 0 0 0 0 0 0.000000
1 14 21.3876023734 4.00646702 0.0847783079 0 0 0 0 0 0 0.000000
1 15 26.0507358331 4.00646702 0.9137267619 0 0 0 0 0 0 0.000000
1 16 24.8726583879 6.0090177603 0.0878084967 0 0 0 0 0 0 0.000000
1 17 23.7108700664 4.00646702 1.721081177 0 0 0 0 0 0 0.000000
1 18 27.2056336091 6.0213200022 1.7452627174 0 0 0 0 0 0 0.000000
1 19 22.5477078636 6.0088245438 3.3600006746 0 0 0 0 0 0 0.000000
1 20 21.3870689006 4.00646702 2.5382993184 0 0 0 0 0 0 0.000000
1 21 26.0372709225 4.00646702 3.3588104768 0 0 0 0 0 0 0.000000
1 22 24.8763097315 6.0126231261 2.5419778256 0 0 0 0 0 0 0.000000
1 23 23.7058481069 4.00646702 4.176690002 0 0 0 0 0 0 0.000000
1 24 27.192610784 6.0063441911 4.1957071653 0 0 0 0 0 0 0.000000
1 25 15.5347723877 2.0028864868 0.8957290925 0 0 0 0 0 0 0.000000
1 26 14.3358151492 0.0 4.5171107209 0 0 0 0 0 0 0.000000
1 27 19.0730544831 0.0 0.9029016122 0 0 0 0 0 0 0.000000
1 28 17.8912434029 2.0052604645 0.0757781656 0 0 0 0 0 0 0.000000
1 29 16.7312060571 0.0 1.7219073613 0 0 0 0 0 0 0.000000
1 30 20.2292353116 2.0041701679 1.7204004442 0 0 0 0 0 0 0.000000
1 31 15.5169302733 1.9844525181 3.3632186316 0 0 0 0 0 0 0.000000
1 32 19.0684400057 0.0 3.3554013347 0 0 0 0 0 0 0.000000
1 33 17.8903522892 1.9993331607 2.5272901023 0 0 0 0 0 0 0.000000
1 34 16.7628235214 0.0 4.1819104519 0 0 0 0 0 0 0.000000
1 35 20.2278495925 2.0048061927 4.1741874889 0 0 0 0 0 0 0.000000
1 36 15.5347723877 6.0100475532 0.8957290925 0 0 0 0 0 0 0.000000
1 37 14.314095433 4.00646702 4.5862537139 0 0 0 0 0 0 0.000000
1 38 19.0595209215 4.00646702 0.9021844217 0 0 0 0 0 0 0.000000
1 39 17.8912434029 6.0076735755 0.0757781656 0 0 0 0 0 0 0.000000
1 40 16.7277683046 4.00646702 1.6729796724 0 0 0 0 0 0 0.000000
1 41 20.2292353116 6.0087638721 1.7204004442 0 0 0 0 0 0 0.000000
1 42 15.5169302733 6.0284815219 3.3632186316 0 0 0 0 0 0 0.000000
1 43 14.3064963409 4.00646702 2.1464225316 0 0 0 0 0 0 0.000000
1 44 19.0653627939 4.00646702 3.3538476538 0 0 0 0 0 0 0.000000
1 45 17.8903522892 6.0136008793 2.5272901023 0 0 0 0 0 0 0.000000
1 46 16.7365358099 4.00646702 4.1288175599 0 0 0 0 0 0 0.000000
1 47 20.2278495925 6.0081278473 4.1741874889 0 0 0 0 0 0 0.000000
1 48 0.2388857547 0.0 2.5638740417 0 0 0 0 0 0 0.000000
1 49 0.2078726032 4.00646702 0.041947324 0 0 0 0 0 0 0.000000
1 50 2.6594780593 0.0 2.9432389138 0 0 0 0 0 0 0.000000
1 51 1.4179876364 1.9859124033 3.7481539574 0 0 0 0 0 0 0.000000
1 52 3.7894178943 2.0047949775 2.1377417698 0 0 0 0 0 0 0.000000
1 53 6.1251357797 2.0048807304 2.9516002178 0 0 0 0 0 0 0.000000
1 54 4.9655070186 0.0 3.7690938334 0 0 0 0 0 0 0.000000
1 55 2.6299162744 0.0 0.4970446091 0 0 0 0 0 0 0.000000
1 56 1.4352474682 2.003098839 1.3092014145 0 0 0 0 0 0 0.000000
1 57 3.7889108795 1.9992866794 4.5932133409 0 0 0 0 0 0 0.000000
1 58 6.1265933297 2.0041731722 0.498473574 0 0 0 0 0 0 0.000000
1 59 4.9703976268 0.0 1.3148345534 0 0 0 0 0 0 0.000000
1 60 0.2156305484 4.00646702 2.5112812605 0 0 0 0 0 0 0.000000
1 61 2.6351022496 4.00646702 2.9808387137 0 0 0 0 0 0 0.000000
1 62 1.4179876364 6.0270216367 3.7481539574 0 0 0 0 0 0 0.000000
1 63 3.7894178943 6.0081390625 2.1377417698 0 0 0 0 0 0 0.000000
1 64 6.1251357797 6.0080533096 2.9516002178 0 0 0 0 0 0 0.000000
1 65 4.9626210058 4.00646702 3.7686400006 0 0 0 0 0 0 0.000000
1 66 2.6259576391 4.00646702 0.5297025144 0 0 0 0 0 0 0.000000
1 67 1.4352474682 6.009835201 1.3092014145 0 0 0 0 0 0 0.000000
1 68 3.7889108795 6.0136473606 4.5932133409 0 0 0 0 0 0 0.000000
1 69 6.1265933297 6.0087608678 0.498473574 0 0 0 0 0 0 0.000000
1 70 4.9568989288 4.00646702 1.3134333992 0 0 0 0 0 0 0.000000
1 71 7.2841410859 0.0 2.1324730356 0 0 0 0 0 0 0.000000
1 72 9.6096233113 0.0 2.9421972242 0 0 0 0 0 0 0.000000
1 73 8.4447292666 2.0044029915 3.765275029 0 0 0 0 0 0 0.000000
1 74 10.7705132707 2.0037851771 2.1229907983 0 0 0 0 0 0 0.000000
1 75 13.0936375934 2.0051869348 2.9007290244 0 0 0 0 0 0 0.000000
1 76 11.9450735478 0.0 3.7327046313 0 0 0 0 0 0 0.000000
1 77 7.283507808 0.0 4.5839735416 0 0 0 0 0 0 0.000000
1 78 9.5951141703 0.0 0.4865500604 0 0 0 0 0 0 0.000000
1 79 8.4435280788 2.0023090125 1.312008243 0 0 0 0 0 0 0.000000
1 80 10.7747513649 2.0007477352 4.5756626601 0 0 0 0 0 0 0.000000
1 81 13.1069840024 1.9900315017 0.4439645033 0 0 0 0 0 0 0.000000
1 82 11.9182665453 0.0 1.2677548839 0 0 0 0 0 0 0.000000
1 83 7.2847429134 4.00646702 2.133817776 0 0 0 0 0 0 0.000000
1 84 9.6036637601 4.00646702 2.9452463435 0 0 0 0 0 0 0.000000
1 85 8.4447292666 6.0085310485 3.765275029 0 0 0 0 0 0 0.000000
1 86 10.7705132707 6.0091488629 2.1229907983 0 0 0 0 0 0 0.000000
1 87 13.0936375934 6.0077471052 2.9007290244 0 0 0 0 0 0 0.000000
1 88 11.9374395718 4.00646702 3.7507129127 0 0 0 0 0 0 0.000000
1 89 7.2838622662 4.00646702 4.5870350118 0 0 0 0 0 0 0.000000
1 90 9.6087505742 4.00646702 0.4937217822 0 0 0 0 0 0 0.000000
1 91 8.4435280788 6.0106250275 1.312008243 0 0 0 0 0 0 0.000000
1 92 10.7747513649 6.0121863048 4.5756626601 0 0 0 0 0 0 0.000000
1 93 13.1069840024 6.0229025383 0.4439645033 0 0 0 0 0 0 0.000000
1 94 11.9498353495 4.00646702 1.2883391659 0 0 0 0 0 0 0.000000
2 95 14.3154668168 2.3367106855 1.892978983 0.137994 305.33898976 -0.02978600 1.378535 0.202248 0.182193 1.381094
2 96 15.6441138809 0.3364448311 0.5370176477 0.124964 305.67996736 -0.01455600 1.368597 0.215695 0.172760 1.352432
2 97 14.396186167 2.3281090388 1.9904027149 0.135734 306.92583550 -0.03036600 1.386999 0.206156 0.182605 1.379343
2 98 15.3990065697 3.6900831761 0.8269623256 0.172884 313.90868938 -0.03673600 1.416601 0.220579 0.165189 1.370351
2 99 15.4002235995 3.6871763088 0.8252053976 0.172914 313.95702136 -0.03664600 1.415618 0.220518 0.165531 1.371595
2 100 16.4118715125 2.5130332717 2.1491638556 0.322054 329.91236485 0.11566400 1.421301 0.270366 0.224033 1.405280
2 101 14.3971418171 1.6890883955 4.4604159809 0.167584 316.26622240 -0.04998600 1.399581 0.212171 0.177694 1.394229
2 102 15.6441137839 0.3364447679 0.5370177537 0.124964 305.67996736 -0.01455600 1.368597 0.215695 0.172761 1.352432
2 103 14.1979991297 1.6483866231 4.2160429029 0.162744 313.72765116 -0.05072600 1.397446 0.218567 0.177606 1.397611
2 104 15.530272729 0.197526674 3.135680286 0.135354 298.06998856 0.00157400 1.317880 0.183466 0.158581 1.346843
2 105 14.306106132 2.3220273245 4.3498461151 0.184104 312.39785137 -0.04932600 1.391784 0.203536 0.178600 1.394722
2 106 15.6315407585 3.6288236004 2.9995011284 0.166794 307.16754966 -0.04094600 1.386008 0.210677 0.170221 1.370239
2 107 14.396108036 5.6847754205 1.9903014257 0.135734 306.92583550 -0.02999600 1.387280 0.206467 0.182179 1.381632
2 108 15.3989945214 4.3228441588 0.8269564575 0.172874 313.90868938 -0.03684600 1.416600 0.220420 0.165602 1.370228
2 109 14.3154535176 5.676230915 1.8929764504 0.137984 305.33898976 -0.02938600 1.378536 0.202301 0.182364 1.385840
2 110 15.3999256711 4.3257359897 0.8258430961 0.172884 314.25922453 -0.03685600 1.414654 0.220734 0.165571 1.371069
2 111 16.4118995527 5.4999540044 2.1491144727 0.322054 329.79202850 0.11542400 1.421301 0.270403 0.224201 1.405856
2 112 15.644953497 7.6761553654 0.5359594231 0.124944 305.50773421 -0.01461600 1.370350 0.215773 0.172723 1.351937
2 113 15.6449534367 7.6761553805 0.5359595035 0.124944 305.50773421 -0.01461600 1.370350 0.215773 0.172624 1.351938
2 114 13.4262863392 4.535157536 0.9241304907 0.333494 328.31775218 0.12529400 1.437308 0.270146 0.223074 1.399848
2 115 15.399006567 3.690083183 0.8269623296 0.172884 313.90868938 -0.03672600 1.416601 0.220579 0.165168 1.371013
2 116 14.3060997534 5.6909082599 4.349847864 0.184094 312.39785137 -0.04990600 1.391784 0.203389 0.176986 1.396619
2 117 15.4024247402 4.3230580653 0.8227109518 0.172924 314.01539169 -0.03671600 1.419994 0.219549 0.165762 1.371449
2 118 15.6349358835 4.3856059157 2.9963167826 0.166804 307.37042872 -0.04082600 1.383138 0.211541 0.169153 1.369377
2 119 15.4002095633 3.6875845524 0.8244449329 0.172924 314.06387849 -0.03683600 1.415894 0.220173 0.165344 1.371114
2 120 13.4262873091 3.4777727239 0.9241324512 0.333464 328.31775218 0.12528400 1.437307 0.269908 0.222926 1.400044
2 121 15.5302678629 7.8154216794 3.1356811299 0.135354 298.06998856 0.00158400 1.317879 0.183575 0.158638 1.346841
2 122 14.1980268125 6.3645628664 4.2160728481 0.162764 313.72765116 -0.05042600 1.397447 0.218459 0.176943 1.396054
2 123 14.4009318796 6.3261114758 4.4641070236 0.167544 316.37834484 -0.05019600 1.398454 0.213349 0.178053 1.394275
2 124 13.4262863373 4.5351575345 0.9241304906 0.333494 328.31775218 0.12529400 1.437308 0.270146 0.223072 1.399846
2 125 13.4262873091 3.477772724 0.9241324512 0.333464 328.31775218 0.12528400 1.437307 0.269908 0.222925 1.400043
3 126 0.1880489459 0.0 0.1144394784 0 0 0 0 0 0 0.000000
3 127 14.284018764 0.0 2.0578693408 0 0 0 0 0 0 0.000000
