ITEM: TIMESTEP
0
ITEM: NUMBER OF ATOMS
104
ITEM: BOX BOUNDS pp pp pp
0.0 27.96381776
0.0 8.01293404
0.0 4.90689994
ITEM: ATOMS type id x y z SE CD SE_NF BC ZPE ZPE_NF BC_NF
1 1 22.2316863675 2.00323351 1.0241777509 0 0 0 0 0 0 0.000000
1 2 21.0736952404 0.001623722 0.2054130309 0 0 0 0 0 0 0.000000
1 3 25.7256704155 0.0026948403 1.0412564499 0 0 0 0 0 0 0.000000
1 4 24.568144316 2.00323351 0.2159257713 0 0 0 0 0 0 0.000000
1 5 23.3927040314 8.0126859841 1.8403975939 0 0 0 0 0 0 0.000000
1 6 26.8742945743 2.00323351 1.8406868557 0 0 0 0 0 0 0.000000
1 7 22.2323778686 2.00323351 3.477309432 0 0 0 0 0 0 0.000000
1 8 21.0700847908 0.0014801134 2.660162115 0 0 0 0 0 0 0.000000
1 9 25.7054782407 0.0186170156 3.502145434 0 0 0 0 0 0 0.000000
1 10 24.5517435081 2.00323351 2.6699839403 0 0 0 0 0 0 0.000000
1 11 23.3908766257 5.1748402022e-04 4.2955272773 0 0 0 0 0 0 0.000000
1 12 26.9818870401 2.00323351 4.2835111542 0 0 0 0 0 0 0.000000
1 13 22.2351706786 6.00970053 1.0217641983 0 0 0 0 0 0 0.000000
1 14 21.0736952404 4.004843298 0.2054130309 0 0 0 0 0 0 0.000000
1 15 25.7256704155 4.0037721797 1.0412564499 0 0 0 0 0 0 0.000000
1 16 24.5605199143 6.00970053 0.2095653306 0 0 0 0 0 0 0.000000
1 17 23.3927040314 4.0067150759 1.8403975939 0 0 0 0 0 0 0.000000
1 18 26.8931664414 6.00970053 1.7752806828 0 0 0 0 0 0 0.000000
1 19 22.2357892641 6.00970053 3.4737906963 0 0 0 0 0 0 0.000000
1 20 21.0700847908 4.0049869066 2.660162115 0 0 0 0 0 0 0.000000
1 21 25.7054782407 3.9878500044 3.502145434 0 0 0 0 0 0 0.000000
1 22 24.5615970099 6.00970053 2.6646111368 0 0 0 0 0 0 0.000000
1 23 23.3908766257 4.005949536 4.2955272773 0 0 0 0 0 0 0.000000
1 24 26.9057447833 6.00970053 4.2337243426 0 0 0 0 0 0 0.000000
1 25 15.3095853647 2.00323351 1.0157261845 0 0 0 0 0 0 0.000000
1 26 14.0818889547 8.003219055 0.2839316253 0 0 0 0 0 0 0.000000
1 27 18.7567968549 0.002833224 1.0184674287 0 0 0 0 0 0 0.000000
1 28 17.6206000767 2.00323351 0.2310275314 0 0 0 0 0 0 0.000000
1 29 16.4501726684 7.9983516821 1.7860368032 0 0 0 0 0 0 0.000000
1 30 19.9120359587 2.00323351 1.8419314516 0 0 0 0 0 0 0.000000
1 31 14.1504611614 0.0615656753 2.7305032285 0 0 0 0 0 0 0.000000
1 32 18.7460447201 0.0081921486 3.4711265358 0 0 0 0 0 0 0.000000
1 33 17.5114072547 2.00323351 2.6866649332 0 0 0 0 0 0 0.000000
1 34 16.385835442 0.0862537438 4.2385901114 0 0 0 0 0 0 0.000000
1 35 19.9085151852 2.00323351 4.290823476 0 0 0 0 0 0 0.000000
1 36 15.3079700918 6.00970053 0.979541506 0 0 0 0 0 0 0.000000
1 37 14.0818889547 4.016182005 0.2839316253 0 0 0 0 0 0 0.000000
1 38 18.7567968549 4.003633796 1.0184674287 0 0 0 0 0 0 0.000000
1 39 17.6022721627 6.00970053 0.1828712524 0 0 0 0 0 0 0.000000
1 40 16.4501726684 4.0210493779 1.7860368032 0 0 0 0 0 0 0.000000
1 41 19.9192021461 6.00970053 1.8326693149 0 0 0 0 0 0 0.000000
1 42 15.3109445631 6.00970053 3.4390870577 0 0 0 0 0 0 0.000000
1 43 14.1504611614 3.9449013447 2.7305032285 0 0 0 0 0 0 0.000000
1 44 18.7460447201 3.9982748714 3.4711265358 0 0 0 0 0 0 0.000000
1 45 17.6037525801 6.00970053 2.6496693284 0 0 0 0 0 0 0.000000
1 46 16.385835442 3.9202132762 4.2385901114 0 0 0 0 0 0 0.000000
1 47 19.9156485999 6.00970053 4.2865962002 0 0 0 0 0 0 0.000000
1 48 0.168009108 0.0629889619 0.4668667083 0 0 0 0 0 0 0.000000
1 49 2.4669816513 7.9980014445 1.4119388341 0 0 0 0 0 0 0.000000
1 50 1.3272655192 2.00323351 2.1819807736 0 0 0 0 0 0 0.000000
1 51 3.5269091244 2.00323351 0.5077896666 0 0 0 0 0 0 0.000000
1 52 5.9286214289 2.00323351 1.345532616 0 0 0 0 0 0 0.000000
1 53 4.7731589474 0.0028564336 2.1723062128 0 0 0 0 0 0 0.000000
1 54 0.0992748282 8.0032319121 2.9141475661 0 0 0 0 0 0 0.000000
1 55 2.4019460466 0.0865066211 3.8664950511 0 0 0 0 0 0 0.000000
1 56 3.6374611043 2.00323351 2.9632194583 0 0 0 0 0 0 0.000000
1 57 5.9254440828 2.00323351 3.8034713964 0 0 0 0 0 0 0.000000
1 58 4.7622634658 0.0085479465 4.6267429356 0 0 0 0 0 0 0.000000
1 59 0.168009108 3.9434780581 0.4668667083 0 0 0 0 0 0 0.000000
1 60 2.4669816513 4.0213996155 1.4119388341 0 0 0 0 0 0 0.000000
1 61 1.3248939515 6.00970053 2.2231573664 0 0 0 0 0 0 0.000000
1 62 3.620760985 6.00970053 0.545634429 0 0 0 0 0 0 0.000000
1 63 5.9357242209 6.00970053 1.3549750988 0 0 0 0 0 0 0.000000
1 64 4.7731589474 4.0036105864 2.1723062128 0 0 0 0 0 0 0.000000
1 65 0.0992748282 4.0161691479 2.9141475661 0 0 0 0 0 0 0.000000
1 66 2.4019460466 3.9199603989 3.8664950511 0 0 0 0 0 0 0.000000
1 67 1.3270476502 6.00970053 4.6707941576 0 0 0 0 0 0 0.000000
1 68 3.6194890418 6.00970053 3.0136034665 0 0 0 0 0 0 0.000000
1 69 5.932619898 6.00970053 3.8079185857 0 0 0 0 0 0 0.000000
1 70 4.7622634658 3.9979190735 4.6267429356 0 0 0 0 0 0 0.000000
1 71 7.0870505637 0.0016435234 0.5239392898 0 0 0 0 0 0 0.000000
1 72 9.4104990426 8.012785517 1.3432484485 0 0 0 0 0 0 0.000000
1 73 8.2490216065 2.00323351 2.1593152533 0 0 0 0 0 0 0.000000
1 74 10.5700946896 2.00323351 0.5130895444 0 0 0 0 0 0 0.000000
1 75 12.8925930407 2.00323351 1.3448350746 0 0 0 0 0 0 0.000000
1 76 11.7445346698 0.0031386117 2.143772814 0 0 0 0 0 0 0.000000
1 77 7.0909408682 0.0017037813 2.9786583548 0 0 0 0 0 0 0.000000
1 78 9.4087722051 6.0078828661e-04 3.7950412349 0 0 0 0 0 0 0.000000
1 79 8.2498818874 2.00323351 4.6131310161 0 0 0 0 0 0 0.000000
1 80 10.5865639499 2.00323351 2.9669966214 0 0 0 0 0 0 0.000000
1 81 13.0014943229 2.00323351 3.8092214437 0 0 0 0 0 0 0.000000
1 82 11.7247334475 0.0189748127 4.5897885783 0 0 0 0 0 0 0.000000
1 83 7.0870505637 4.0048234966 0.5239392898 0 0 0 0 0 0 0.000000
1 84 9.4104990426 4.006615543 1.3432484485 0 0 0 0 0 0 0.000000
1 85 8.2521942974 6.00970053 2.161901205 0 0 0 0 0 0 0.000000
1 86 10.5795507319 6.00970053 0.5185232422 0 0 0 0 0 0 0.000000
1 87 12.9096444245 6.00970053 1.4122942086 0 0 0 0 0 0 0.000000
1 88 11.7445346698 4.0033284083 2.143772814 0 0 0 0 0 0 0.000000
1 89 7.0909408682 4.0047632387 2.9786583548 0 0 0 0 0 0 0.000000
1 90 9.4087722051 4.0058662317 3.7950412349 0 0 0 0 0 0 0.000000
1 91 8.2529378835 6.00970053 4.6168137429 0 0 0 0 0 0 0.000000
1 92 10.5782672259 6.00970053 2.973734309 0 0 0 0 0 0 0.000000
1 93 12.9229884731 6.00970053 3.8614127371 0 0 0 0 0 0 0.000000
1 94 11.7247334475 3.9874922073 4.5897885783 0 0 0 0 0 0 0.000000
2 95 16.2674221902 2.0048026092 4.1285689047 -0.331006 174.20862229 -0.35630600 1.296783 0.149689 0.142743 1.276640
2 96 16.2694018844 2.0028380729 4.1231158762 -0.330996 174.09180653 -0.35607600 1.295834 0.149894 0.142515 1.279151
2 97 14.7680274679 1.1008683529 4.0879126787 -0.327626 169.72682565 -0.34566600 1.314352 0.151157 0.148821 1.315024
2 98 14.7658220552 2.9046036742 4.0875005558 -0.327646 169.68595922 -0.34565600 1.314936 0.151122 0.148720 1.314955
2 99 16.2662082361 2.0073388351 4.1250014727 -0.331006 174.26422052 -0.35630600 1.295009 0.149206 0.142821 1.277852
2 100 15.7750035246 1.1544496814 2.8055540387 -0.336896 171.55216796 -0.35748600 1.310433 0.146592 0.140221 1.317065
2 101 23.3909026939 1.0015560575 3.0678619489 0.439784 345.13672883 0.20150400 1.453990 0.285030 0.240989 1.418321
2 102 15.7732441552 2.8493748656 2.8032453256 -0.336866 171.51477210 -0.35729600 1.311102 0.146009 0.139987 1.317853
2 103 14.2180047093 2.0022397475 2.5231229873 -0.296826 181.22808630 -0.32865600 1.329696 0.154637 0.151469 1.319973
2 104 14.2195140996 2.009285124 2.5215868451 -0.296846 181.28497701 -0.32865600 1.330758 0.154386 0.151467 1.320429
