ITEM: TIMESTEP
0
ITEM: NUMBER OF ATOMS
128
ITEM: BOX BOUNDS pp pp pp
0.0 28.18921776
0.0 8.01293404
0.0 4.90689994
ITEM: ATOMS type id x y z SE CD SE_NF BC ZPE ZPE_NF BC_NF
1 1 22.5312490753 2.0022296598 0.8139982587 0 0 0 0 0 0 0.000000
1 2 21.3730920629 0.0 4.9006326846 0 0 0 1.396732 0 0 0.000000
1 3 26.0418788618 0.0 0.8337155711 0 0 0 0 0 0 0.000000
1 4 24.8634386723 2.002127742 4.9035036392 0 0 0 0 0 0 0.000000
1 5 23.6943597779 0.0 1.6298479258 0 0 0 0 0 0 0.000000
1 6 27.1839658806 2.0084563634 1.663047375 0 0 0 0 0 0 0.000000
1 7 22.5357559734 2.0030575725 3.267262382 0 0 0 0 0 0 0.000000
1 8 21.3668981687 0.0 2.4516787012 0 0 0 0 0 0 0.000000
1 9 26.0328162777 0.0 3.2741535385 0 0 0 0 0 0 0.000000
1 10 24.8616899273 1.9973949451 2.449001473 0 0 0 0 0 0 0.000000
1 11 23.7009194419 0.0 4.0852772527 0 0 0 0 0 0 0.000000
1 12 27.1828434826 1.9979581876 4.1133412481 0 0 0 0 0 0 0.000000
1 13 22.5312490753 6.0107043802 0.8139982587 0 0 0 0 0 0 0.000000
1 14 21.3704808595 4.00646702 4.9019545858 0 0 0 0 0 0 0.000000
1 15 26.0363034445 4.00646702 0.8285977599 0 0 0 0 0 0 0.000000
1 16 24.8634386723 6.010806298 4.9035036392 0 0 0 0 0 0 0.000000
1 17 23.6986572081 4.00646702 1.6306191691 0 0 0 0 0 0 0.000000
1 18 27.1839658806 6.0044776766 1.663047375 0 0 0 0 0 0 0.000000
1 19 22.5357559734 6.0098764675 3.267262382 0 0 0 0 0 0 0.000000
1 20 21.3698210845 4.00646702 2.4487060148 0 0 0 0 0 0 0.000000
1 21 26.0248600377 4.00646702 3.2805416686 0 0 0 0 0 0 0.000000
1 22 24.8616899273 6.0155390949 2.449001473 0 0 0 0 0 0 0.000000
1 23 23.6916528248 4.00646702 4.084726596 0 0 0 0 0 0 0.000000
1 24 27.1828434826 6.0149758524 4.1133412481 0 0 0 0 0 0 0.000000
1 25 15.5371668686 2.0105486663 0.828352901 0 0 0 0 0 0 0.000000
1 26 14.3140861609 0.0 4.6476956417 0 0 0 0 0 0 0.000000
1 27 19.0471878277 0.0 0.8152335272 0 0 0 0 0 0 0.000000
1 28 17.8732162995 1.9990850623 4.8960994214 0 0 0 0 0 0 0.000000
1 29 16.6977449147 0.0 1.6123228975 0 0 0 0 0 0 0.000000
1 30 20.2117143716 2.0028222215 1.6317696486 0 0 0 0 0 0 0.000000
1 31 15.5242120568 2.0005623021 3.2947136814 0 0 0 0 0 0 0.000000
1 32 19.0425919182 0.0 3.2672473656 0 0 0 0 0 0 0.000000
1 33 17.8712092968 1.9998259342 2.4405502521 0 0 0 0 0 0 0.000000
1 34 16.7180685795 0.0 4.0712826145 0 0 0 0 0 0 0.000000
1 35 20.2078466605 2.0027489468 4.0856251636 0 0 0 0 0 0 0.000000
1 36 15.5371668686 6.0023853737 0.828352901 0 0 0 0 0 0 0.000000
1 37 14.3118469892 4.00646702 4.6242430106 0 0 0 0 0 0 0.000000
1 38 19.0430977083 4.00646702 0.8154029423 0 0 0 0 0 0 0.000000
1 39 17.8732162995 6.0138489777 4.8960994214 0 0 0 0 0 0 0.000000
1 40 16.713759406 4.00646702 1.6073825491 0 0 0 0 0 0 0.000000
1 41 20.2117143716 6.0101118185 1.6317696486 0 0 0 0 0 0 0.000000
1 42 15.5242120568 6.0123717379 3.2947136814 0 0 0 0 0 0 0.000000
1 43 14.3092502411 4.00646702 2.1796236261 0 0 0 0 0 0 0.000000
1 44 19.049139177 4.00646702 3.2682354775 0 0 0 0 0 0 0.000000
1 45 17.8712092968 6.0131081058 2.4405502521 0 0 0 0 0 0 0.000000
1 46 16.7233116432 4.00646702 4.0600812076 0 0 0 0 0 0 0.000000
1 47 20.2078466605 6.0101850932 4.0856251636 0 0 0 0 0 0 0.000000
1 48 2.6212881335 0.0 3.0499758478 0 0 0 0 0 0 0.000000
1 49 1.4305015375 2.0005681654 3.8148004703 0 0 0 0 0 0 0.000000
1 50 3.7768409275 1.9990693165 2.2288592924 0 0 0 0 0 0 0.000000
1 51 0.2190470986 0.0 2.4463049575 0 0 0 0 0 0 0.000000
1 52 6.1104341222 2.0027437706 3.0457843143 0 0 0 0 0 0 0.000000
1 53 4.9459948677 0.0 3.8631076859 0 0 0 0 0 0 0.000000
1 54 2.6029211139 0.0 0.6018393561 0 0 0 0 0 0 0.000000
1 55 1.4442151004 2.0103246028 1.3755140219 0 0 0 0 0 0 0.000000
1 56 3.7748991136 2.000163662 4.684417783 0 0 0 0 0 0 0.000000
1 57 6.1144222323 2.0027494152 0.5927267506 0 0 0 0 0 0 0.000000
1 58 4.9509346871 0.0 1.4082304922 0 0 0 0 0 0 0.000000
1 59 0.2181700802 4.00646702 2.4610895499 0 0 0 0 0 0 0.000000
1 60 2.6260626103 4.00646702 3.0598822655 0 0 0 0 0 0 0.000000
1 61 1.4305015375 6.0123658746 3.8148004703 0 0 0 0 0 0 0.000000
1 62 3.7768409275 6.0138647235 2.2288592924 0 0 0 0 0 0 0.000000
1 63 6.1104341222 6.0101902694 3.0457843143 0 0 0 0 0 0 0.000000
1 64 4.9524898404 4.00646702 3.8618164281 0 0 0 0 0 0 0.000000
1 65 0.2154025332 4.00646702 4.9059795121 0 0 0 0 0 0 0.000000
1 66 2.6167088059 4.00646702 0.6055854307 0 0 0 0 0 0 0.000000
1 67 1.4442151004 6.0026094372 1.3755140219 0 0 0 0 0 0 0.000000
1 68 3.7748991136 6.012770378 4.684417783 0 0 0 0 0 0 0.000000
1 69 6.1144222323 6.0101846248 0.5927267506 0 0 0 0 0 0 0.000000
1 70 4.9466564868 4.00646702 1.4079403431 0 0 0 0 0 0 0.000000
1 71 7.2762003706 0.0 2.2296115934 0 0 0 0 0 0 0.000000
1 72 9.6046632392 0.0 3.0339557438 0 0 0 0 0 0 0.000000
1 73 8.4384684336 2.003056989 3.8593215041 0 0 0 0 0 0 0.000000
1 74 10.7676261473 2.001931123 2.2073249363 0 0 0 0 0 0 0.000000
1 75 13.0891532714 1.9982915319 2.9742084436 0 0 0 0 0 0 0.000000
1 76 11.9381940282 0.0 3.8247572506 0 0 0 0 0 0 0.000000
1 77 7.270055606 0.0 4.678592472 0 0 0 0 0 0 0.000000
1 78 9.5982134846 0.0 0.5829054948 0 0 0 0 0 0 0.000000
1 79 8.4338386445 2.0022776538 1.4057232649 0 0 0 0 0 0 0.000000
1 80 10.7659337526 1.9970849803 4.6616559666 0 0 0 0 0 0 0.000000
1 81 13.0903169379 2.0087544239 0.5178920209 0 0 0 0 0 0 0.000000
1 82 11.9476203431 0.0 1.3570635839 0 0 0 0 0 0 0.000000
1 83 7.2735501323 4.00646702 2.2284570257 0 0 0 0 0 0 0.000000
1 84 9.5952476327 4.00646702 3.0352195268 0 0 0 0 0 0 0.000000
1 85 8.4384684336 6.009877051 3.8593215041 0 0 0 0 0 0 0.000000
1 86 10.7676261473 6.011002917 2.2073249363 0 0 0 0 0 0 0.000000
1 87 13.0891532714 6.0146425081 2.9742084436 0 0 0 0 0 0 0.000000
1 88 11.9297044087 4.00646702 3.816930781 0 0 0 0 0 0 0.000000
1 89 7.2726451096 4.00646702 4.6817450222 0 0 0 0 0 0 0.000000
1 90 9.6024070328 4.00646702 0.5821513267 0 0 0 0 0 0 0.000000
1 91 8.4338386445 6.0106563862 1.4057232649 0 0 0 0 0 0 0.000000
1 92 10.7659337526 6.0158490597 4.6616559666 0 0 0 0 0 0 0.000000
1 93 13.0903169379 6.0041796161 0.5178920209 0 0 0 0 0 0 0.000000
1 94 11.9409303802 4.00646702 1.3617136135 0 0 0 0 0 0 0.000000
2 95 14.3242080563 1.7588560773 4.3791035359 0.153204 306.78705300 -0.02364600 1.370827 0.190950 0.174869 1.357108
2 96 14.327006667 1.7569444025 4.3835928493 0.153184 306.91846902 -0.02400600 1.370443 0.191539 0.174822 1.365255
2 97 14.3222252737 2.2808333551 4.3763125699 0.137184 306.36776529 -0.02490600 1.375697 0.196792 0.174201 1.369696
2 98 14.3183787196 2.2793805151 4.3726357331 0.137174 306.48060171 -0.02486600 1.376486 0.196221 0.174646 1.368327
2 99 14.3221367082 5.7318533378 4.3761570082 0.137184 306.41253844 -0.02486600 1.375036 0.196807 0.174433 1.370262
2 100 14.3180232942 5.7339832016 4.372502982 0.137184 306.52431343 -0.02494600 1.376637 0.196136 0.175200 1.367336
2 101 14.3276601291 6.2528990237 4.3841718574 0.153214 306.69949259 -0.02377600 1.371062 0.191184 0.175190 1.363067
2 102 14.3257230194 6.2591648929 4.3825353682 0.153184 306.98670921 -0.02409600 1.370300 0.192067 0.174621 1.358563
2 103 15.3535767578 7.6139695457 3.4034728799 0.531294 326.92134422 0.10293400 1.468707 0.256085 0.169412 1.394169
2 104 15.7830111231 7.5395598027 2.8643912609 0.469934 323.72809068 0.10200400 1.442771 0.257488 0.168936 1.395254
2 105 15.3540849668 0.399085735 3.4042166374 0.531294 327.16664683 0.10287400 1.468046 0.256128 0.169080 1.396325
2 106 15.7830322945 0.4732506857 2.8644259925 0.469944 323.67820713 0.10215400 1.443033 0.257441 0.168221 1.395783
2 107 15.353779784 3.6512555909 3.3239475946 0.299454 321.38602917 -0.00409600 1.396200 0.239821 0.168219 1.375031
2 108 15.6995339463 3.5908369685 2.8777867572 0.280804 317.06296877 -0.00532600 1.394645 0.239647 0.167373 1.371054
2 109 15.3542654515 4.3605687575 3.3237792342 0.299454 321.34588933 -0.00426600 1.396628 0.239830 0.169857 1.375507
2 110 15.7001944144 4.4224586363 2.8764282143 0.280804 317.11015881 -0.00498600 1.396460 0.240005 0.168284 1.368959
2 111 14.3266166331 2.2843864483 1.9151793841 0.110244 304.73848629 -0.03381600 1.383829 0.196884 0.179855 1.383005
2 112 14.3263203944 2.2863781188 1.9139884432 0.110244 304.92733754 -0.03382600 1.383744 0.196911 0.179874 1.382567
2 113 14.3297968133 2.2835544349 1.9184704539 0.110274 304.64213001 -0.03342600 1.382257 0.196935 0.179616 1.385815
2 114 14.3248905591 2.2856007782 1.9127798327 0.110244 304.71115294 -0.03342600 1.383450 0.196722 0.179741 1.386408
2 115 14.3282680714 5.7259704415 1.9161041113 0.110254 304.83697365 -0.03390600 1.384036 0.197181 0.179944 1.383740
2 116 14.3222437056 5.7286111313 1.9105127195 0.110254 304.38290808 -0.03379600 1.382959 0.196436 0.179693 1.383273
2 117 14.3222840541 5.7255165971 1.909396421 0.110254 304.43638651 -0.03377600 1.382625 0.196693 0.179857 1.382962
2 118 14.3255400379 5.7281241405 1.9134205861 0.110244 304.74617199 -0.03342600 1.383735 0.196659 0.179643 1.385320
2 119 15.7169213163 0.4403181537 0.4046037366 0.350354 324.11712532 0.08524400 1.404511 0.248847 0.175463 1.401092
2 120 15.7177338767 0.4404589672 0.4042327714 0.350344 324.12807460 0.08513400 1.404294 0.248854 0.175447 1.402460
2 121 15.7186493937 7.5719334093 0.4032244654 0.350354 324.21757331 0.08517400 1.404511 0.249109 0.175877 1.404412
2 122 15.7184904809 7.5718482189 0.4034567865 0.350364 324.16584483 0.08611400 1.404318 0.249170 0.176011 1.401972
2 123 15.3366038066 3.6589507512 0.8871361016 0.284934 322.84292960 -0.00118600 1.400520 0.243644 0.162682 1.374683
2 124 15.6928888999 3.6152190371 0.4332108221 0.292844 319.47469477 -0.00133600 1.390910 0.239176 0.162924 1.367405
2 125 15.3365147288 4.3540063161 0.8873412371 0.284924 322.71880192 -0.00130600 1.399854 0.243573 0.162757 1.375242
2 126 15.6910083608 4.396843949 0.4366119347 0.292834 319.58244165 -0.00164600 1.391445 0.238575 0.162440 1.363106
3 127 0.2066552478 0.0 4.904196317 0 0 0 0 0 0 0.000000
3 128 14.2985114983 0.0 2.1905944093 0 0 0 0 0 0 0.000000
