ITEM: TIMESTEP
0
ITEM: NUMBER OF ATOMS
128
ITEM: BOX BOUNDS pp pp pp
0.0 28.25081776
0.0 8.01293404
0.0 4.90689994
ITEM: ATOMS type id x y z SE CD SE_NF BC ZPE ZPE_NF BC_NF
1 1 1.5085857132 2.4287963142 1.7341652322 0 0 0 0 0 0 0.000000
1 2 3.8280312029 2.3983676911 0.0834328833 0 0 0 1.407096 0 0 0.000000
1 3 0.2759960832 0.4006131225 0.038044371 0 0 0 0 0 0 0.000000
1 4 6.1518191111 2.4049090424 0.905124981 0 0 0 0 0 0 0.000000
1 5 4.9887418779 0.4006379288 1.722141388 0 0 0 0 0 0 0.000000
1 6 2.6758953291 0.4006217786 3.3763448975 0 0 0 0 0 0 0.000000
1 7 1.493994005 2.4079931371 4.1986341022 0 0 0 0 0 0 0.000000
1 8 3.8274999815 2.405524302 2.5389719303 0 0 0 0 0 0 0.000000
1 9 6.1532499616 2.404207587 3.3587114879 0 0 0 0 0 0 0.000000
1 10 4.9962450612 0.4006397592 4.1776057401 0 0 0 0 0 0 0.000000
1 11 0.2730827845 4.4070906626 0.0503299282 0 0 0 0 0 0 0.000000
1 12 2.6577315428 4.4070915604 0.9064026558 0 0 0 0 0 0 0.000000
1 13 1.5085947746 6.385372687 1.7341526233 0 0 0 0 0 0 0.000000
1 14 3.8280241999 6.4158278771 0.0834356177 0 0 0 0 0 0 0.000000
1 15 6.1518182272 6.4093081182 0.9051208017 0 0 0 0 0 0 0.000000
1 16 4.9903314232 4.4071081636 1.7231741197 0 0 0 0 0 0 0.000000
1 17 0.2765279315 4.4070828708 2.5092019892 0 0 0 0 0 0 0.000000
1 18 2.647471151 4.4070912745 3.3670491038 0 0 0 0 0 0 0.000000
1 19 1.4939980772 6.4061779328 4.1986224917 0 0 0 0 0 0 0.000000
1 20 3.8275010524 6.4086691797 2.53896817 0 0 0 0 0 0 0.000000
1 21 6.1532529031 6.4100126882 3.3587106961 0 0 0 0 0 0 0.000000
1 22 4.9853472413 4.4071077545 4.1764900284 0 0 0 0 0 0 0.000000
1 23 7.3155819089 0.4006481463 0.0836384917 0 0 0 0 0 0 0.000000
1 24 9.6401840738 0.4006646165 0.8925012831 0 0 0 0 0 0 0.000000
1 25 8.4746101429 2.4034786815 1.716714112 0 0 0 0 0 0 0.000000
1 26 10.8105143451 2.4050788079 0.0576848422 0 0 0 0 0 0 0.000000
1 27 13.181562401 2.4304720789 0.9240881079 0 0 0 0 0 0 0.000000
1 28 11.9810029196 0.4006738185 1.6685332259 0 0 0 0 0 0 0.000000
1 29 7.3074476607 0.400650026 2.533866934 0 0 0 0 0 0 0.000000
1 30 9.6290093693 0.400669294 3.3414169831 0 0 0 0 0 0 0.000000
1 31 8.4743217649 2.4051648622 4.1702166603 0 0 0 0 0 0 0.000000
1 32 10.810783741 2.4002215599 2.5089596745 0 0 0 0 0 0 0.000000
1 33 13.1655762812 2.4260272291 3.3574539062 0 0 0 0 0 0 0.000000
1 34 11.935351993 0.4006756295 4.1184441825 0 0 0 0 0 0 0.000000
1 35 7.310297167 4.4071192681 0.0818111112 0 0 0 0 0 0 0.000000
1 36 9.6326965882 4.4071333186 0.8922662844 0 0 0 0 0 0 0.000000
1 37 8.474600865 6.4107721877 1.7167075994 0 0 0 0 0 0 0.000000
1 38 10.8105029658 6.4091966783 0.0576770558 0 0 0 0 0 0 0.000000
1 39 13.1815506024 6.383815637 0.9240558357 0 0 0 0 0 0 0.000000
1 40 11.9552559433 4.4071460463 1.6782998096 0 0 0 0 0 0 0.000000
1 41 2.652156416 0.4006238347 0.9131100576 0 0 0 0 0 0 0.000000
1 42 7.3111973629 4.4071212572 2.5354333629 0 0 0 0 0 0 0.000000
1 43 9.637722495 4.407134956 3.3454649183 0 0 0 0 0 0 0.000000
1 44 8.4743190768 6.4090824036 4.1702095428 0 0 0 0 0 0 0.000000
1 45 10.8107791065 6.4140589952 2.5089550332 0 0 0 0 0 0 0.000000
1 46 13.1655846903 6.3882735997 3.3574152019 0 0 0 0 0 0 0.000000
1 47 11.9641486106 4.407150327 4.1342129445 0 0 0 0 0 0 0.000000
1 48 22.6005028972 2.4051374282 2.9524317351 0 0 0 0 0 0 0.000000
1 49 21.443013377 0.4006423477 2.1347909418 0 0 0 0 0 0 0.000000
1 50 26.0589312476 0.4006238339 2.9801230936 0 0 0 0 0 0 0.000000
1 51 24.9349116754 2.4051815303 2.1438593318 0 0 0 0 0 0 0.000000
1 52 23.7545471846 0.4006273508 3.7739799721 0 0 0 0 0 0 0.000000
1 53 27.2909282712 2.4260223958 3.7389760364 0 0 0 0 0 0 0.000000
1 54 22.6008132379 2.4034111772 0.4989800998 0 0 0 0 0 0 0.000000
1 55 21.4345786399 0.4006395124 4.5914975763 0 0 0 0 0 0 0.000000
1 56 26.105358517 0.4006244142 0.5229826349 0 0 0 0 0 0 0.000000
1 57 24.9352210885 2.4002499521 4.5993825726 0 0 0 0 0 0 0.000000
1 58 23.766040644 0.4006306692 1.315895182 0 0 0 0 0 0 0.000000
1 59 27.3068191997 2.4305148135 1.2638349876 0 0 0 0 0 0 0.000000
1 60 22.6005041086 6.4090683102 2.9524211751 0 0 0 0 0 0 0.000000
1 61 21.4372485361 4.4071149418 2.1370580138 0 0 0 0 0 0 0.000000
1 62 26.0879047626 4.4070872622 2.9683050399 0 0 0 0 0 0 0.000000
1 63 24.9349176114 6.4090095719 2.1438445541 0 0 0 0 0 0 0.000000
1 64 23.7628941041 4.4070991211 3.7705662592 0 0 0 0 0 0 0.000000
1 65 27.2909181251 6.3881400287 3.7389514652 0 0 0 0 0 0 0.000000
1 66 22.6008177177 6.4107955615 0.4989747767 0 0 0 0 0 0 0.000000
1 67 21.4382538153 4.4071117 4.5903727657 0 0 0 0 0 0 0.000000
1 68 26.0783470745 4.4070927168 0.5170436484 0 0 0 0 0 0 0.000000
1 69 24.9352183027 6.413934374 4.5993758201 0 0 0 0 0 0 0.000000
1 70 23.7577237413 4.4071012018 1.3167774345 0 0 0 0 0 0 0.000000
1 71 27.3068316331 6.3836563864 1.2638177404 0 0 0 0 0 0 0.000000
1 72 15.6209284499 2.4082147521 2.9124558555 0 0 0 0 0 0 0.000000
1 73 14.40325675 0.4006791484 2.153898678 0 0 0 0 0 0 0.000000
1 74 19.1248198749 0.4006482205 2.9488266673 0 0 0 0 0 0 0.000000
1 75 17.9558501155 2.398626106 2.1345986708 0 0 0 0 0 0 0.000000
1 76 16.8040781662 0.4006607723 3.7403364878 0 0 0 0 0 0 0.000000
1 77 20.2807358267 2.4041304331 3.7700520067 0 0 0 0 0 0 0.000000
1 78 15.6361515583 2.4291658075 0.4713996901 0 0 0 0 0 0 0.000000
1 79 19.1168515738 0.4006471395 0.497286654 0 0 0 0 0 0 0.000000
1 80 17.9554421521 2.4055449099 4.5859933629 0 0 0 0 0 0 0.000000
1 81 16.7800374853 0.4006616128 1.2970719179 0 0 0 0 0 0 0.000000
1 82 20.2793997098 2.4048934219 1.3166213951 0 0 0 0 0 0 0.000000
1 83 15.6209388899 6.4060592288 2.9124471969 0 0 0 0 0 0 0.000000
1 84 14.4006662412 4.4071378895 2.1472917618 0 0 0 0 0 0 0.000000
1 85 19.1137167733 4.4071192997 2.9505235586 0 0 0 0 0 0 0.000000
1 86 17.9558655851 6.4156150144 2.1345966739 0 0 0 0 0 0 0.000000
1 87 16.7757196963 4.4071287054 3.7510850868 0 0 0 0 0 0 0.000000
1 88 20.2807400631 6.4100966119 3.7700508128 0 0 0 0 0 0 0.000000
1 89 15.6361551665 6.3851079709 0.4713903821 0 0 0 0 0 0 0.000000
1 90 14.4041632128 4.4071469298 4.5961026414 0 0 0 0 0 0 0.000000
1 91 19.1188826762 4.4071209905 0.496925554 0 0 0 0 0 0 0.000000
1 92 17.9554525482 6.4086947915 4.5859891831 0 0 0 0 0 0 0.000000
1 93 16.7861327871 4.4071332249 1.3049379641 0 0 0 0 0 0 0.000000
1 94 20.2794092086 6.4093386235 1.3166158729 0 0 0 0 0 0 0.000000
2 95 14.3255365803 2.6350745936 4.4613267769 0.086864 308.99813236 -0.09734600 1.442376 0.195624 0.175881 1.389293
2 96 14.3230051522 2.6306473405 4.4651324649 0.086834 309.00236425 -0.09733600 1.442457 0.196248 0.175952 1.389477
2 97 14.3251384803 2.6352403762 4.4622918672 0.086854 308.89966869 -0.09728600 1.442401 0.195768 0.175954 1.389780
2 98 14.3237609434 2.6328611319 4.4634166617 0.086814 308.91427473 -0.09713600 1.443243 0.195912 0.175860 1.388901
2 99 14.3258721629 6.1778714709 4.4615418428 0.086854 309.04164027 -0.09727600 1.441539 0.195555 0.175874 1.390030
2 100 14.321261996 6.1796241686 4.4666418893 0.086834 308.81819525 -0.09725600 1.443994 0.196952 0.175912 1.389634
2 101 14.3254810397 6.1797020128 4.461221474 0.086844 308.90497239 -0.09732600 1.442116 0.195546 0.175947 1.389494
2 102 14.326036405 6.1843971087 4.4615567918 0.086844 308.77253751 -0.09735600 1.442172 0.195052 0.175768 1.389934
2 103 13.0633923536 0.0253590958 2.9982042178 0.122354 307.87797198 -0.03291600 1.411839 0.224673 0.194901 1.422840
2 104 13.064979954 0.0237770798 2.99973254 0.122304 307.20627391 -0.03276600 1.413044 0.224734 0.194825 1.422140
2 105 13.0632687811 0.7759194953 2.9981853486 0.122374 307.87436916 -0.03291600 1.411826 0.224498 0.194807 1.422926
2 106 13.0655705393 0.7770967371 3.0007391403 0.122354 307.04808885 -0.03274600 1.412872 0.224384 0.194659 1.420946
2 107 13.2789706376 4.1380552157 3.257990479 0.192534 314.16437149 -0.03224600 1.407347 0.208933 0.155382 1.362767
2 108 13.1025521704 4.1106674429 3.0412907849 0.197614 312.71569919 -0.03256600 1.385983 0.196137 0.155842 1.362021
2 109 13.2782074179 4.6766695892 3.2569410238 0.192544 314.02514045 -0.03232600 1.405101 0.208941 0.155690 1.360983
2 110 13.0985004724 4.704220351 3.03563337 0.197644 312.39492156 -0.03263600 1.382944 0.197669 0.155961 1.360181
2 111 14.3114570971 2.0817383365 2.0212325379 0.148504 313.64059646 -0.05857600 1.384605 0.205856 0.168505 1.366284
2 112 14.529329804 2.0234935012 1.7473277972 0.140494 309.85112513 -0.05937600 1.390077 0.214843 0.168625 1.366863
2 113 14.3231142584 2.6995390119 2.0152786091 0.174654 313.23099388 -0.05765600 1.387979 0.203424 0.169339 1.366034
2 114 14.4955660781 2.7393456993 1.8021278697 0.174864 310.43924191 -0.05862600 1.384000 0.203262 0.168046 1.367258
2 115 14.319633401 6.1117279495 2.0186201983 0.174604 313.20806805 -0.05776600 1.389230 0.205209 0.169545 1.366537
2 116 14.4988004472 6.0710717919 1.7983321655 0.174864 310.47484672 -0.05782600 1.382246 0.204855 0.168896 1.368034
2 117 14.3103664943 6.732071914 2.0228987274 0.148474 313.78158104 -0.05853600 1.386412 0.206080 0.168582 1.366038
2 118 14.5292609559 6.7903917082 1.747279523 0.140454 309.89373448 -0.05931600 1.390058 0.214833 0.168191 1.366610
2 119 13.3211036682 7.9617967433 1.0271076079 0.428444 321.71998269 0.06248400 1.482465 0.275981 0.195353 1.426191
2 120 12.8151169457 7.8475268474 0.4189350726 0.341414 313.66596200 0.16581400 1.456477 0.261389 0.219541 1.439321
2 121 13.3213087023 0.8522107248 1.0277844052 0.341404 321.84835349 0.07304400 1.481706 0.276166 0.195191 1.467371
2 122 12.8157805403 0.966418969 0.4199942085 0.341404 313.66456456 0.16631400 1.456523 0.261225 0.219647 1.439072
2 123 13.2683646988 4.1501176966 0.7908247093 0.185424 313.21087346 -0.03975600 1.403088 0.202474 0.153566 1.361122
2 124 13.0915950598 4.1053050075 0.5728761481 0.188674 310.93957247 -0.04011600 1.382154 0.200440 0.153795 1.362102
2 125 13.2685051763 4.6636955226 0.7910581641 0.185424 313.15933910 -0.03977600 1.403241 0.202097 0.153891 1.361206
2 126 13.0979017639 4.7068722189 0.5808967052 0.188604 311.60405877 -0.04010600 1.383468 0.198470 0.153981 1.362478
3 127 14.3879399537 0.4006735188 4.6082464434 0 0 0 0 0 0 0.000000
3 128 0.2605388561 0.4006230229 2.4916774896 0 0 0 0 0 0 0.000000
