ITEM: TIMESTEP
0
ITEM: NUMBER OF ATOMS
104
ITEM: BOX BOUNDS pp pp pp
0.0 28.09841776
0.0 8.01293404
0.0 4.90689994
ITEM: ATOMS type id x y z SE CD SE_NF BC ZPE ZPE_NF BC_NF
1 1 22.3997564617 2.00323351 0.7299832039 0 0 0 0 0 0 0.000000
1 2 21.2421667687 0.0 4.8171847744 0 0 0 1.389981 0 0 0.000000
1 3 25.8785791192 0.0 0.7689130329 0 0 0 0 0 0 0.000000
1 4 24.7296563363 2.00323351 4.8394009523 0 0 0 0 0 0 0.000000
1 5 23.5595446158 0.0 1.5514099106 0 0 0 0 0 0 0.000000
1 6 27.0887415334 2.00323351 1.5272792039 0 0 0 0 0 0 0.000000
1 7 22.3997564617 2.00323351 3.1834331739 0 0 0 0 0 0 0.000000
1 8 21.2421667687 0.0 2.3637348044 0 0 0 0 0 0 0.000000
1 9 25.8785791192 0.0 3.2223630029 0 0 0 0 0 0 0.000000
1 10 24.7296563363 2.00323351 2.3859509823 0 0 0 0 0 0 0.000000
1 11 23.5595446158 0.0 4.0048598806 0 0 0 0 0 0 0.000000
1 12 27.0887415334 2.00323351 3.9807291739 0 0 0 0 0 0 0.000000
1 13 22.3997564617 6.00970053 0.7299832039 0 0 0 0 0 0 0.000000
1 14 21.2421667687 4.00646702 4.8171847744 0 0 0 0 0 0 0.000000
1 15 25.8785791192 4.00646702 0.7689130329 0 0 0 0 0 0 0.000000
1 16 24.7296563363 6.00970053 4.8394009523 0 0 0 0 0 0 0.000000
1 17 23.5595446158 4.00646702 1.5514099106 0 0 0 0 0 0 0.000000
1 18 27.0887415334 6.00970053 1.5272792039 0 0 0 0 0 0 0.000000
1 19 22.3997564617 6.00970053 3.1834331739 0 0 0 0 0 0 0.000000
1 20 21.2421667687 4.00646702 2.3637348044 0 0 0 0 0 0 0.000000
1 21 25.8785791192 4.00646702 3.2223630029 0 0 0 0 0 0 0.000000
1 22 24.7296563363 6.00970053 2.3859509823 0 0 0 0 0 0 0.000000
1 23 23.5595446158 4.00646702 4.0048598806 0 0 0 0 0 0 0.000000
1 24 27.0887415334 6.00970053 3.9807291739 0 0 0 0 0 0 0.000000
1 25 15.452891176 2.00323351 0.713747238 0 0 0 0 0 0 0.000000
1 26 14.2423781276 0.0 4.8786459417 0 0 0 0 0 0 0.000000
1 27 18.9267815535 0.0 0.7249731354 0 0 0 0 0 0 0.000000
1 28 17.7694012349 2.00323351 4.8163663154 0 0 0 0 0 0 0.000000
1 29 16.5991450749 0.0 1.5387274028 0 0 0 0 0 0 0.000000
1 30 20.0845508026 2.00323351 1.5411089974 0 0 0 0 0 0 0.000000
1 31 15.452891176 2.00323351 3.167197208 0 0 0 0 0 0 0.000000
1 32 14.2423781276 0.0 2.4251959717 0 0 0 0 0 0 0.000000
1 33 18.9267815535 0.0 3.1784231054 0 0 0 0 0 0 0.000000
1 34 17.7694012349 2.00323351 2.3629163454 0 0 0 0 0 0 0.000000
1 35 16.5991450749 0.0 3.9921773728 0 0 0 0 0 0 0.000000
1 36 20.0845508026 2.00323351 3.9945589674 0 0 0 0 0 0 0.000000
1 37 15.452891176 6.00970053 0.713747238 0 0 0 0 0 0 0.000000
1 38 14.2423781276 4.00646702 4.8786459417 0 0 0 0 0 0 0.000000
1 39 18.9267815535 4.00646702 0.7249731354 0 0 0 0 0 0 0.000000
1 40 17.7694012349 6.00970053 4.8163663154 0 0 0 0 0 0 0.000000
1 41 16.5991450749 4.00646702 1.5387274028 0 0 0 0 0 0 0.000000
1 42 20.0845508026 6.00970053 1.5411089974 0 0 0 0 0 0 0.000000
1 43 15.452891176 6.00970053 3.167197208 0 0 0 0 0 0 0.000000
1 44 14.2423781276 4.00646702 2.4251959717 0 0 0 0 0 0 0.000000
1 45 18.9267815535 4.00646702 3.1784231054 0 0 0 0 0 0 0.000000
1 46 17.7694012349 6.00970053 2.3629163454 0 0 0 0 0 0 0.000000
1 47 16.5991450749 4.00646702 3.9921773728 0 0 0 0 0 0 0.000000
1 48 20.0845508026 6.00970053 3.9945589674 0 0 0 0 0 0 0.000000
1 49 0.1942847056 0.0 0.2975915735 0 0 0 0 0 0 0.000000
1 50 2.5529431008 0.0 1.1581410799 0 0 0 0 0 0 0.000000
1 51 1.4056811876 2.00323351 1.9917254294 0 0 0 0 0 0 0.000000
1 52 3.723254436 2.00323351 0.3228263477 0 0 0 0 0 0 0.000000
1 53 6.0398864907 2.00323351 1.1395559403 0 0 0 0 0 0 0.000000
1 54 4.8820065262 0.0 1.9569457498 0 0 0 0 0 0 0.000000
1 55 0.1942847056 0.0 2.7510415435 0 0 0 0 0 0 0.000000
1 56 2.5529431008 0.0 3.6115910499 0 0 0 0 0 0 0.000000
1 57 1.4056811876 2.00323351 4.4451753994 0 0 0 0 0 0 0.000000
1 58 3.723254436 2.00323351 2.7762763177 0 0 0 0 0 0 0.000000
1 59 6.0398864907 2.00323351 3.5930059103 0 0 0 0 0 0 0.000000
1 60 4.8820065262 0.0 4.4103957198 0 0 0 0 0 0 0.000000
1 61 0.1942847056 4.00646702 0.2975915735 0 0 0 0 0 0 0.000000
1 62 2.5529431008 4.00646702 1.1581410799 0 0 0 0 0 0 0.000000
1 63 1.4056811876 6.00970053 1.9917254294 0 0 0 0 0 0 0.000000
1 64 3.723254436 6.00970053 0.3228263477 0 0 0 0 0 0 0.000000
1 65 6.0398864907 6.00970053 1.1395559403 0 0 0 0 0 0 0.000000
1 66 4.8820065262 4.00646702 1.9569457498 0 0 0 0 0 0 0.000000
1 67 0.1942847056 4.00646702 2.7510415435 0 0 0 0 0 0 0.000000
1 68 2.5529431008 4.00646702 3.6115910499 0 0 0 0 0 0 0.000000
1 69 1.4056811876 6.00970053 4.4451753994 0 0 0 0 0 0 0.000000
1 70 3.723254436 6.00970053 2.7762763177 0 0 0 0 0 0 0.000000
1 71 6.0398864907 6.00970053 3.5930059103 0 0 0 0 0 0 0.000000
1 72 4.8820065262 4.00646702 4.4103957198 0 0 0 0 0 0 0.000000
1 73 7.1971277904 0.0 0.3192721318 0 0 0 0 0 0 0.000000
1 74 9.5135429603 0.0 1.1433576252 0 0 0 0 0 0 0.000000
1 75 8.3541747864 2.00323351 1.9571249578 0 0 0 0 0 0 0.000000
1 76 10.6827665476 2.00323351 0.3165177112 0 0 0 0 0 0 0.000000
1 77 13.0417408913 2.00323351 1.2029925342 0 0 0 0 0 0 0.000000
1 78 11.8308020126 0.0 1.9455482944 0 0 0 0 0 0 0.000000
1 79 7.1971277904 0.0 2.7727221018 0 0 0 0 0 0 0.000000
1 80 9.5135429603 0.0 3.5968075952 0 0 0 0 0 0 0.000000
1 81 8.3541747864 2.00323351 4.4105749278 0 0 0 0 0 0 0.000000
1 82 10.6827665476 2.00323351 2.7699676812 0 0 0 0 0 0 0.000000
1 83 13.0417408913 2.00323351 3.6564425042 0 0 0 0 0 0 0.000000
1 84 11.8308020126 0.0 4.3989982644 0 0 0 0 0 0 0.000000
1 85 7.1971277904 4.00646702 0.3192721318 0 0 0 0 0 0 0.000000
1 86 9.5135429603 4.00646702 1.1433576252 0 0 0 0 0 0 0.000000
1 87 8.3541747864 6.00970053 1.9571249578 0 0 0 0 0 0 0.000000
1 88 10.6827665476 6.00970053 0.3165177112 0 0 0 0 0 0 0.000000
1 89 13.0417408913 6.00970053 1.2029925342 0 0 0 0 0 0 0.000000
1 90 11.8308020126 4.00646702 1.9455482944 0 0 0 0 0 0 0.000000
1 91 7.1971277904 4.00646702 2.7727221018 0 0 0 0 0 0 0.000000
1 92 9.5135429603 4.00646702 3.5968075952 0 0 0 0 0 0 0.000000
1 93 8.3541747864 6.00970053 4.4105749278 0 0 0 0 0 0 0.000000
1 94 10.6827665476 6.00970053 2.7699676812 0 0 0 0 0 0 0.000000
1 95 13.0417408913 6.00970053 3.6564425042 0 0 0 0 0 0 0.000000
1 96 11.8308020126 4.00646702 4.3989982644 0 0 0 0 0 0 0.000000
2 97 14.132548114 1.6827598579 4.7796494813 0.263074 316.82344637 -0.03034600 1.385851 0.221131 0.163501 1.390793
2 98 14.3784578149 1.6251527343 4.4762388104 0.245858 312.34952580 -0.03040600 1.391263 0.219373 0.163366 1.379659
2 99 14.1324505306 2.3223522495 4.7792123223 0.261220 316.74328890 -0.03046600 1.386356 0.220857 0.165167 1.376823
2 100 14.3756198781 2.3791428008 4.481313822 0.249323 312.53451834 -0.03040600 1.389086 0.218514 0.162344 1.380360
2 101 13.1440512698 3.6875482384 3.5437808853 0.248057 316.68566620 -0.03083600 1.387302 0.218496 0.166435 1.394747
2 102 12.9123982782 3.6356632944 3.2605600255 0.240878 311.48265509 -0.03099600 1.415979 0.216731 0.162688 1.381396
2 103 13.1436610895 4.3241229726 3.5437097355 0.245945 316.41241101 -0.03114600 1.386785 0.218463 0.164749 1.411584
2 104 12.9141659713 4.3777645527 3.2618289446 0.243209 311.33403335 -0.03116600 1.414720 0.216403 0.163807 1.381064
