ITEM: TIMESTEP
0
ITEM: NUMBER OF ATOMS
169
ITEM: BOX BOUNDS pp pp pp
0.0 27.2932778
0.0 5.6659999
0.0 8.9587326
ITEM: ATOMS type id x y z SE CD SE_NF BC ZPE ZPE_NF BC_NF
1 1 26.5429909499 1.5559790097 6.3725831297 0 0 0 0 0 0 0.000000
1 2 26.010551973 1.5811393088 0.106016801 0 0 0 1.384150 0 0 0.000000
1 3 26.6140940192 0.0871390587 2.0764287995 0 0 0 0 0 0 0.000000
1 4 24.7135324691 1.5906235293 2.7967857931 0 0 0 0 0 0 0.000000
1 5 25.4870679092 0.1786676066 4.5837863148 0 0 0 0 0 0 0.000000
1 6 23.7810860356 1.5931242328 5.5303440651 0 0 0 0 0 0 0.000000
1 7 24.7490416773 0.182302308 7.3262076483 0 0 0 0 0 0 0.000000
1 8 22.9275481165 1.5898300314 8.1952070477 0 0 0 0 0 0 0.000000
1 9 23.8446369253 0.2094567122 1.0217062577 0 0 0 0 0 0 0.000000
1 10 22.0039034953 1.5932662774 1.9176320805 0 0 0 0 0 0 0.000000
1 11 22.8802519278 0.184984772 3.7087841266 0 0 0 0 0 0 0.000000
1 12 21.0958167099 1.5946520829 4.616937973 0 0 0 0 0 0 0.000000
1 13 21.9993729305 0.1781800912 6.414814629 0 0 0 0 0 0 0.000000
1 14 20.2079420712 1.5938383243 7.3054675744 0 0 0 0 0 0 0.000000
1 15 21.1128780057 0.1791482436 0.1342425494 0 0 0 0 0 0 0.000000
1 16 19.3101306674 1.593809618 1.0362785952 0 0 0 0 0 0 0.000000
1 17 20.1968699754 0.1798446889 2.8250310768 0 0 0 0 0 0 0.000000
1 18 18.3899740814 1.5967623202 3.7289869622 0 0 0 0 0 0 0.000000
1 19 19.305711012 0.178210086 5.5120282218 0 0 0 0 0 0 0.000000
1 20 18.416785447 0.1783131428 8.2011455549 0 0 0 0 0 0 0.000000
1 21 26.5646015815 4.3875166124 6.4794724271 0 0 0 0 0 0 0.000000
1 22 25.5012712157 4.4177108822 0.1629829274 0 0 0 0 0 0 0.000000
1 23 26.6051889432 3.0261291788 2.0949983751 0 0 0 0 0 0 0.000000
1 24 24.6523478341 4.4269761868 2.7992886883 0 0 0 0 0 0 0.000000
1 25 25.4890692613 3.032989701 4.5881268078 0 0 0 0 0 0 0.000000
1 26 23.7681514761 4.426729162 5.5421182087 0 0 0 0 0 0 0.000000
1 27 24.748250394 2.9774613445 7.3301802492 0 0 0 0 0 0 0.000000
1 28 22.9150145899 4.4244342763 8.203516599 0 0 0 0 0 0 0.000000
1 29 23.8417105074 2.9673538415 1.0246557177 0 0 0 0 0 0 0.000000
1 30 22.0059774979 4.4281092618 1.9138325022 0 0 0 0 0 0 0.000000
1 31 22.8820384102 3.0052596125 3.7091858151 0 0 0 0 0 0 0.000000
1 32 21.0920980474 4.4279370377 4.6169019494 0 0 0 0 0 0 0.000000
1 33 21.9988972743 3.0091122843 6.4168383617 0 0 0 0 0 0 0.000000
1 34 20.2067045422 4.4287516936 7.3050527392 0 0 0 0 0 0 0.000000
1 35 21.1132796441 3.0095927861 0.133661791 0 0 0 0 0 0 0.000000
1 36 19.309169193 4.4290430189 1.0386005359 0 0 0 0 0 0 0.000000
1 37 20.2011699003 3.0110288897 2.8218211052 0 0 0 0 0 0 0.000000
1 38 18.3892459047 4.4243824802 3.729855742 0 0 0 0 0 0 0.000000
1 39 19.3066548337 3.0098790673 5.5111060268 0 0 0 0 0 0 0.000000
1 40 18.4196843138 3.0092552039 8.2013727825 0 0 0 0 0 0 0.000000
1 41 17.5105625071 1.5939820282 6.4022280644 0 0 0 0 0 0 0.000000
1 42 16.6320919589 1.5873363752 0.1526110957 0 0 0 0 0 0 0.000000
1 43 17.5016062837 0.1763806057 1.9462962971 0 0 0 0 0 0 0.000000
1 44 15.6594903578 1.5295444058 2.8554664187 0 0 0 0 0 0 0.000000
1 45 16.6036770267 0.1737425681 4.6421797277 0 0 0 0 0 0 0.000000
1 46 15.7340601977 0.1748851447 7.2696391613 0 0 0 0 0 0 0.000000
1 47 14.0809552951 1.6216287968 -0.7400053056 0 0 0 0 0 0 0.000000
1 48 14.7736190549 0.1720531452 1.0391177152 0 0 0 0 0 0 0.000000
1 49 14.6667243352 1.5193142577 5.4546207971 0 0 0 0 0 0 0.000000
1 50 17.5109215973 4.4248404981 6.403083299 0 0 0 0 0 0 0.000000
1 51 16.6318411549 4.4322971601 0.1519306695 0 0 0 0 0 0 0.000000
1 52 17.5022128371 3.0100749052 1.9453832578 0 0 0 0 0 0 0.000000
1 53 15.6544000095 4.4842853928 2.8565287748 0 0 0 0 0 0 0.000000
1 54 16.5681651031 3.0067475294 4.625490296 0 0 0 0 0 0 0.000000
1 55 14.6738797241 4.4706310342 5.4636278125 0 0 0 0 0 0 0.000000
1 56 15.7451962205 3.0063029175 7.2509429244 0 0 0 0 0 0 0.000000
1 57 14.0823071999 4.4011687112 -0.7382721008 0 0 0 0 0 0 0.000000
1 58 14.8464116896 3.0049057936 1.0651556146 0 0 0 0 0 0 0.000000
1 59 14.0247595968 3.0076166267 3.6869012109 0 0 0 0 0 0 0.000000
1 60 8.3510831058 1.5248236532 6.5758806119 0 0 0 0 0 0 0.000000
1 61 4.7691879384 1.5209856967 4.7891814386 0 0 0 0 0 0 0.000000
1 62 6.5604791983 0.1079255853 5.6842703274 0 0 0 0 0 0 0.000000
1 63 5.6584725783 1.5223032119 7.4776263956 0 0 0 0 0 0 0.000000
1 64 7.4478631326 0.1080430092 8.3735593168 0 0 0 0 0 0 0.000000
1 65 6.5490559133 1.5222550529 1.2063583975 0 0 0 0 0 0 0.000000
1 66 8.3561560016 0.1107373239 2.1146263308 0 0 0 0 0 0 0.000000
1 67 7.4652143453 1.5238306694 3.8973023898 0 0 0 0 0 0 0.000000
1 68 2.0885925002 1.5201258952 5.7210084064 0 0 0 0 0 0 0.000000
1 69 3.8636131109 0.1040351288 6.5887267694 0 0 0 0 0 0 0.000000
1 70 2.9568854394 1.5227305075 8.3486276908 0 0 0 0 0 0 0.000000
1 71 4.7428738753 0.102726126 0.3025163341 0 0 0 0 0 0 0.000000
1 72 3.8539293981 1.5214188391 2.0854339645 0 0 0 0 0 0 0.000000
1 73 5.6623823349 0.1069864954 2.9947330103 0 0 0 0 0 0 0.000000
1 74 0.4351047972 0.0704618917 4.7712051679 0 0 0 0 0 0 0.000000
1 75 1.0198996138 0.1764998141 7.5365940142 0 0 0 0 0 0 0.000000
1 76 2.0127039627 0.1652287098 1.1764236002 0 0 0 0 0 0 0.000000
1 77 1.1268112553 1.5219461477 2.9913561575 0 0 0 0 0 0 0.000000
1 78 2.9847495224 0.1090444526 3.8793326955 0 0 0 0 0 0 0.000000
1 79 8.3505455565 4.359935422 6.5737216776 0 0 0 0 0 0 0.000000
1 80 4.7720848855 4.3560107824 4.7890740528 0 0 0 0 0 0 0.000000
1 81 6.5590434396 2.9392197491 5.6844592125 0 0 0 0 0 0 0.000000
1 82 5.6594841508 4.3565304499 7.4786464176 0 0 0 0 0 0 0.000000
1 83 7.4443835092 2.9409041634 8.3737381771 0 0 0 0 0 0 0.000000
1 84 6.553492069 4.3573312036 1.2092602951 0 0 0 0 0 0 0.000000
1 85 8.3579245224 2.9422835523 2.1181027218 0 0 0 0 0 0 0.000000
1 86 7.4655987559 4.3595402136 3.8978368885 0 0 0 0 0 0 0.000000
1 87 2.0985740832 4.3546435037 5.7400614801 0 0 0 0 0 0 0.000000
1 88 3.8638898921 2.9389896983 6.5877358016 0 0 0 0 0 0 0.000000
1 89 2.9212786067 4.3561484017 8.3655086929 0 0 0 0 0 0 0.000000
1 90 4.7416371014 2.9408899264 0.3018545949 0 0 0 0 0 0 0.000000
1 91 3.8541707235 4.3540152608 2.086584942 0 0 0 0 0 0 0.000000
1 92 5.6612119121 2.9378583824 2.9922002768 0 0 0 0 0 0 0.000000
1 93 0.436241657 2.9538218209 4.7687478354 0 0 0 0 0 0 0.000000
1 94 1.0286032316 2.8889901988 7.5263873768 0 0 0 0 0 0 0.000000
1 95 0.3779103689 4.3530226738 0.3424532932 0 0 0 0 0 0 0.000000
1 96 2.0062260177 2.8749319679 1.1751554384 0 0 0 0 0 0 0.000000
1 97 1.1983420682 4.3558878511 2.96605829 0 0 0 0 0 0 0.000000
1 98 2.984592287 2.9309449704 3.8799902086 0 0 0 0 0 0 0.000000
1 99 11.1013851182 1.5187037327 5.6641035742 0 0 0 0 0 0 0.000000
1 100 12.8950996994 0.1395452393 6.6165694372 0 0 0 0 0 0 0.000000
1 101 11.8384548879 1.5255561593 8.4053824342 0 0 0 0 0 0 0.000000
1 102 12.9663818048 1.6141677142 1.9507538242 0 0 0 0 0 0 0.000000
1 103 9.2803473638 0.1127399704 4.7951884343 0 0 0 0 0 0 0.000000
1 104 10.1323182921 0.1104443748 7.4594885681 0 0 0 0 0 0 0.000000
1 105 9.2323421617 1.5190789623 0.32333426 0 0 0 0 0 0 0.000000
1 106 11.0657139356 0.1135280264 1.2344643589 0 0 0 0 0 0 0.000000
1 107 10.1968448468 1.4949794743 3.009163091 0 0 0 0 0 0 0.000000
1 108 12.3608550768 0.1199714536 3.9234274809 0 0 0 0 0 0 0.000000
1 109 11.1007735265 4.3874813565 5.6614465278 0 0 0 0 0 0 0.000000
1 110 12.9170053672 2.973177064 6.5122797686 0 0 0 0 0 0 0.000000
1 111 11.8407768011 4.340239538 8.4017680447 0 0 0 0 0 0 0.000000
1 112 12.9586077493 4.3402475238 1.9350848396 0 0 0 0 0 0 0.000000
1 113 9.2673045702 2.9444326714 4.7871818118 0 0 0 0 0 0 0.000000
1 114 10.1198246305 2.9429806199 7.4489138329 0 0 0 0 0 0 0.000000
1 115 9.2338167284 4.3647126117 0.3228706019 0 0 0 0 0 0 0.000000
1 116 11.0044054676 2.943843002 1.2307668771 0 0 0 0 0 0 0.000000
1 117 10.194873637 4.401415008 3.0067252186 0 0 0 0 0 0 0.000000
1 118 11.8540533596 2.9502811862 3.8689526389 0 0 0 0 0 0 0.000000
2 119 11.08 0.1140001 2.88 0.22910400 357.19408218 -0.24578600 1.384150 0.242581 0.155325 1.344063
2 120 11.64 5.08 2.61 0.22335400 369.19416050 -0.24652600 1.401876 0.237913 0.155452 1.342587
2 121 11.65 0.83 2.6 0.20709400 366.73778542 -0.24719600 1.406236 0.235504 0.155920 1.346408
2 122 11.83 1.47 3.14 0.23928400 366.06572227 -0.15081600 1.414240 0.242006 0.119659 1.337189
2 123 11.83 4.43 3.14 0.24060400 366.62145741 -0.15049600 1.415991 0.240569 0.118551 1.309779
2 124 12.32 0.1440001 2.28 0.09821400 350.52903346 -0.07723600 1.451075 0.252970 0.207502 1.442342
2 125 12.89 4.23 3.6 0.06975400 307.27095344 -0.10432600 1.362867 0.185218 0.164354 1.346763
2 126 12.96 1.68 3.64 -0.14828600 291.87387143 -0.17646600 1.336385 0.133859 0.130117 1.329289
2 127 12.99 0.0940001 0.1812674 -0.17611600 268.24161917 -0.19948600 1.297320 0.128331 0.133125 1.342785
2 128 13.66 0.1540001 5.06 -0.18727600 248.55743828 -0.27311600 1.412721 0.207922 0.183597 1.397468
2 129 14.0 2.99 5.31 0.21439400 351.46702935 -0.03376600 1.381907 0.249057 0.165499 1.363566
2 130 14.51 2.99 6.16 0.30630400 384.20369232 0.15098400 1.417462 0.243419 0.205374 1.412417
2 131 15.32 2.99 5.67 0.29581400 392.15287398 0.12286400 1.414633 0.254036 0.210027 1.402974
2 132 12.84 1.68 4.9 -0.14191600 267.62228740 -0.21558600 1.328887 0.109905 0.136765 1.360294
2 133 12.85 1.82 5.01 -0.14193600 276.46535180 -0.21437600 1.328533 0.108336 0.136688 1.359822
2 134 12.85 4.21 4.9 -0.14452600 275.07589699 -0.18098600 1.331470 0.109293 0.101961 1.334666
2 135 12.86 1.31 5.21 -0.16351600 278.91268379 -0.21402600 1.364572 0.144903 0.137819 1.358167
2 136 12.86 4.11 4.98 -0.14449600 277.55015099 -0.18036600 1.327892 0.110472 0.100692 1.332015
2 137 12.86 4.61 5.23 -0.16565600 282.33406501 -0.21426600 1.370105 0.146652 0.138319 1.361196
2 138 12.87 1.51 5.47 -0.16352600 300.35172977 -0.21409600 1.364352 0.144883 0.137633 1.357429
2 139 12.88 0.27 0.5212674 -0.17613600 269.11487967 -0.19591600 1.303632 0.128846 0.131554 1.337700
2 140 12.88 4.42 5.46 -0.16564600 299.61562723 -0.21424600 1.371984 0.146852 0.138316 1.361417
2 141 12.88 5.66 0.4612674 -0.17610600 269.56698071 -0.19918600 1.303899 0.128139 0.131646 1.337026
2 142 12.88 0.0940001 0.3812674 -0.17614600 268.17834286 -0.19563600 1.299751 0.128796 0.131872 1.338187
2 143 12.89 2.93 8.27 -0.04000600 314.18681651 -0.10720600 1.302050 0.168509 0.164710 1.331129
2 144 12.89 0.1440001 0.74 -0.17614600 274.61952696 -0.19909600 1.304832 0.129619 0.131529 1.335644
2 145 12.92 2.96 0.4512674 -0.14004600 272.86928169 -0.15786600 1.280827 0.109372 0.110158 1.285939
2 146 12.93 0.0940001 8.41 -0.05953600 307.71782358 -0.11158600 1.284704 0.151636 0.150441 1.285650
2 147 12.98 2.93 0.3112674 -0.14006600 272.26898276 -0.15790600 1.277998 0.109621 0.110144 1.285808
2 148 12.98 4.19 4.69 -0.14451600 268.09441826 -0.18168600 1.331409 0.110175 0.105414 1.337764
2 149 12.99 2.83 0.3812674 -0.14004600 271.81675421 -0.15794600 1.278432 0.110239 0.110113 1.283836
2 150 12.99 3.01 8.27 -0.04000600 317.19072933 -0.10719600 1.303234 0.168209 0.163743 1.331622
2 151 13.01 3.9 4.93 -0.14450600 282.53223398 -0.18066600 1.330051 0.110239 0.101092 1.332908
2 152 13.01 5.47 0.4112674 -0.17614600 273.55063144 -0.19516600 1.299799 0.129154 0.131479 1.338386
2 153 13.02 0.1740001 8.4087326 -0.05951600 308.19568333 -0.11175600 1.285021 0.152188 0.150064 1.285193
2 154 13.04 1.71 4.58 -0.14189600 259.72437037 -0.21552600 1.328666 0.108987 0.136930 1.361486
2 155 13.05 2.13 4.92 -0.14188600 284.06813020 -0.21445600 1.328839 0.105013 0.136837 1.360274
2 156 13.06 3.01 0.2112674 -0.14003600 273.83560637 -0.15421600 1.278546 0.109972 0.110178 1.283891
2 157 13.07 3.23 0.3812674 -0.09176600 277.66718730 -0.13413600 1.266483 0.080112 0.095457 1.278937
2 158 13.08 0.1740001 0.08 -0.17613600 272.58260737 -0.19919600 1.298556 0.128348 0.131847 1.338271
2 159 13.09 0.59 0.4212674 -0.17612600 279.23562776 -0.19925600 1.305908 0.129828 0.131940 1.338325
2 160 13.9 0.1340001 2.76 -0.25062600 220.02432535 -0.27740600 1.335875 0.150685 0.150195 1.332110
2 161 13.92 1.11 3.51 -0.14826600 217.00185677 -0.17602600 1.333925 0.133983 0.129829 1.329649
2 162 13.92 4.86 3.45 -0.15051600 223.93625049 -0.18215600 1.310471 0.136581 0.130399 1.347322
2 163 13.99 1.09 3.7 -0.14825600 215.95113257 -0.17583600 1.338591 0.134067 0.130126 1.329703
2 164 14.02 4.9 3.73 -0.15050600 213.67695791 -0.18228600 1.310517 0.137687 0.130511 1.345781
2 165 14.06 0.0140001 2.89 -0.25062600 212.18526570 -0.27743600 1.333612 0.150980 0.150056 1.332345
2 166 14.09 0.27 2.92 -0.25062600 209.04864848 -0.27710600 1.335053 0.151693 0.150478 1.332211
2 167 14.15 0.1740001 2.97 -0.25062600 204.86916045 -0.27741600 1.335270 0.151967 0.150298 1.332210
2 168 14.44 0.1740001 3.87 -0.24678600 193.74691056 -0.27687600 1.322659 0.137216 0.132484 1.322045
2 169 14.72 0.1740001 3.98 -0.24679600 210.50099987 -0.27651600 1.321983 0.136748 0.133055 1.322001
