ITEM: TIMESTEP
0
ITEM: NUMBER OF ATOMS
179
ITEM: BOX BOUNDS pp pp pp
0.0 27.86404383
0.0 5.666
0.0 8.95873261
ITEM: ATOMS type id x y z SE CD SE_NF BC ZPE ZPE_NF BC_NF
1 1 8.8225651479 1.8596772385 2.0234276326 0 0 0 0 0 0 0.000000
1 2 5.2161166619 1.8576267524 0.2364681003 0 0 0 1.388793 0 0 0.000000
1 3 7.0227920992 0.4421187111 1.1267297804 0 0 0 0 0 0 0.000000
1 4 6.1272861156 1.8584016971 2.9137121888 0 0 0 0 0 0 0.000000
1 5 7.9257206945 0.44600805 3.8144269078 0 0 0 0 0 0 0.000000
1 6 7.0405771753 1.8602768348 5.6118207862 0 0 0 0 0 0 0.000000
1 7 8.8327660372 0.444648815 6.50829209 0 0 0 0 0 0 0.000000
1 8 7.9265999559 1.8591524078 8.2982088204 0 0 0 0 0 0 0.000000
1 9 2.4495188673 1.8508599204 1.1311829341 0 0 0 0 0 0 0.000000
1 10 4.3066956098 0.443594773 2.0261486684 0 0 0 0 0 0 0.000000
1 11 3.4754016218 1.8836929306 3.8477322962 0 0 0 0 0 0 0.000000
1 12 5.2446729487 0.4470277447 4.7141639048 0 0 0 0 0 0 0.000000
1 13 4.3230869003 1.8632583826 6.5070218824 0 0 0 0 0 0 0.000000
1 14 6.1290802459 0.4461694317 7.4016188932 0 0 0 0 0 0 0.000000
1 15 0.5126466277 0.2916644111 0.2787092773 0 0 0 0 0 0 0.000000
1 16 0.4982061864 1.755517429 4.9105887878 0 0 0 0 0 0 0.000000
1 17 2.5023828812 0.4532330492 5.5831639422 0 0 0 0 0 0 0.000000
1 18 1.6419677215 1.921251059 7.3895093901 0 0 0 0 0 0 0.000000
1 19 3.4056147511 0.4519240793 8.3159897122 0 0 0 0 0 0 0.000000
1 20 8.821592228 4.6928440352 2.0239925075 0 0 0 0 0 0 0.000000
1 21 5.2152080888 4.6974117207 0.2347483838 0 0 0 0 0 0 0.000000
1 22 7.0251160921 3.27560765 1.1249168008 0 0 0 0 0 0 0.000000
1 23 6.1260413016 4.6967207132 2.9130915015 0 0 0 0 0 0 0.000000
1 24 7.9278986366 3.2781858255 3.8183360357 0 0 0 0 0 0 0.000000
1 25 7.0398355317 4.6986673565 5.6111866776 0 0 0 0 0 0 0.000000
1 26 8.830931421 3.2776972132 6.5076233724 0 0 0 0 0 0 0.000000
1 27 7.9265229176 4.6933348757 8.2978653707 0 0 0 0 0 0 0.000000
1 28 2.4589334883 4.6682112534 1.1135187459 0 0 0 0 0 0 0.000000
1 29 4.3100390369 3.2776892151 2.0186328335 0 0 0 0 0 0 0.000000
1 30 3.4591755851 4.679970375 3.8371039836 0 0 0 0 0 0 0.000000
1 31 5.2586768397 3.2812944397 4.725414741 0 0 0 0 0 0 0.000000
1 32 4.3195193308 4.709880767 6.5037796191 0 0 0 0 0 0 0.000000
1 33 6.1323977311 3.2780678403 7.4022516516 0 0 0 0 0 0 0.000000
1 34 0.5056456918 3.1315715479 0.3027201228 0 0 0 0 0 0 0.000000
1 35 1.6582493211 3.310350493 2.9859709992 0 0 0 0 0 0 0.000000
1 36 0.4858962943 4.4906270282 4.8540219785 0 0 0 0 0 0 0.000000
1 37 2.5121735918 3.2854407824 5.5965318832 0 0 0 0 0 0 0.000000
1 38 1.6369453464 4.7579019017 7.382775236 0 0 0 0 0 0 0.000000
1 39 3.4148758827 3.2840573314 8.3046306641 0 0 0 0 0 0 0.000000
1 40 11.5277282335 1.8645501586 1.1202123568 0 0 0 0 0 0 0.000000
1 41 13.3040959254 0.5037454814 2.0337125613 0 0 0 0 0 0 0.000000
1 42 12.4444379421 1.8641095036 3.8360294602 0 0 0 0 0 0 0.000000
1 43 13.3242375798 1.8925362394 6.5173800059 0 0 0 0 0 0 0.000000
1 44 9.7253653448 0.4430888363 0.2345092631 0 0 0 0 0 0 0.000000
1 45 10.6241189305 0.451544555 2.9224592653 0 0 0 0 0 0 0.000000
1 46 9.7239717706 1.8601947577 4.7147006532 0 0 0 0 0 0 0.000000
1 47 11.5317227159 0.4494571617 5.600143086 0 0 0 0 0 0 0.000000
1 48 10.6424350182 1.8597315719 7.4078925405 0 0 0 0 0 0 0.000000
1 49 12.4611644579 0.4346237539 8.3237468566 0 0 0 0 0 0 0.000000
1 50 11.5240165766 4.696064772 1.121888058 0 0 0 0 0 0 0.000000
1 51 13.2991236411 3.3404750554 2.0332997569 0 0 0 0 0 0 0.000000
1 52 12.4214480184 4.6955438448 3.832066967 0 0 0 0 0 0 0.000000
1 53 13.2945724899 4.7308181024 6.4964387622 0 0 0 0 0 0 0.000000
1 54 9.7248883722 3.2745291323 0.2320164278 0 0 0 0 0 0 0.000000
1 55 10.6223686111 3.2801144846 2.9209960549 0 0 0 0 0 0 0.000000
1 56 9.7223287614 4.6953964307 4.7145168168 0 0 0 0 0 0 0.000000
1 57 11.5279751839 3.27489775 5.6014730857 0 0 0 0 0 0 0.000000
1 58 10.6372433235 4.6950375391 7.4049226497 0 0 0 0 0 0 0.000000
1 59 12.466291385 3.2653170982 8.3156795078 0 0 0 0 0 0 0.000000
1 60 27.2347316614 1.4805704811 7.375031727 0 0 0 0 0 0 0.000000
1 61 27.2571328366 0.0903539845 2.8905697646 0 0 0 0 0 0 0.000000
1 62 26.3935300773 1.5469277743 1.0835410284 0 0 0 0 0 0 0.000000
1 63 25.4651893449 1.5310136714 3.8067946054 0 0 0 0 0 0 0.000000
1 64 26.3762626023 0.1168593793 5.5715960756 0 0 0 0 0 0 0.000000
1 65 24.5571169503 1.5290226264 6.4834113594 0 0 0 0 0 0 0.000000
1 66 25.4596492431 0.1160936188 8.2873593237 0 0 0 0 0 0 0.000000
1 67 23.6579527754 1.535687148 0.2133258078 0 0 0 0 0 0 0.000000
1 68 24.575315843 0.1186707371 1.9990351404 0 0 0 0 0 0 0.000000
1 69 22.7658654489 1.5349609304 2.8991363434 0 0 0 0 0 0 0.000000
1 70 23.6567626481 0.1190474554 4.691564123 0 0 0 0 0 0 0.000000
1 71 21.8585791841 1.5342730378 5.592574061 0 0 0 0 0 0 0.000000
1 72 22.7554599662 0.1197500271 7.3832842202 0 0 0 0 0 0 0.000000
1 73 20.9553609901 1.5380218274 8.2795213059 0 0 0 0 0 0 0.000000
1 74 21.8594832589 0.1210441874 1.1089399972 0 0 0 0 0 0 0.000000
1 75 20.0612605061 1.5354989974 2.00378272 0 0 0 0 0 0 0.000000
1 76 20.9733418981 0.1198820644 3.7939018816 0 0 0 0 0 0 0.000000
1 77 19.1774698613 1.5354851598 4.6911333029 0 0 0 0 0 0 0.000000
1 78 20.059837214 0.1228772559 6.4916708823 0 0 0 0 0 0 0.000000
1 79 19.148649098 0.125005856 0.2103137182 0 0 0 0 0 0 0.000000
1 80 27.2303475689 4.3097325951 7.3753474997 0 0 0 0 0 0 0.000000
1 81 26.3989069277 4.3820880143 1.0923070164 0 0 0 0 0 0 0.000000
1 82 27.2283545435 2.9175568458 2.9111586004 0 0 0 0 0 0 0.000000
1 83 25.4614614207 4.3711222034 3.8056210963 0 0 0 0 0 0 0.000000
1 84 26.3556274376 2.9513883528 5.5753933419 0 0 0 0 0 0 0.000000
1 85 24.5555019557 4.3656956369 6.4849183173 0 0 0 0 0 0 0.000000
1 86 25.4562245896 2.9509418815 8.2854358799 0 0 0 0 0 0 0.000000
1 87 23.6576157135 4.3703222868 0.2156987982 0 0 0 0 0 0 0.000000
1 88 24.5701395922 2.9495353704 2.0018550605 0 0 0 0 0 0 0.000000
1 89 22.764006717 4.368051134 2.8994046963 0 0 0 0 0 0 0.000000
1 90 23.6553668107 2.9503612061 4.6917769258 0 0 0 0 0 0 0.000000
1 91 21.8611033607 4.3678064114 5.5887507517 0 0 0 0 0 0 0.000000
1 92 22.7548360997 2.9528188252 7.3832038877 0 0 0 0 0 0 0.000000
1 93 20.9578826548 4.3706409494 8.2812757925 0 0 0 0 0 0 0.000000
1 94 21.8598876882 2.952902335 1.109680169 0 0 0 0 0 0 0.000000
1 95 20.065000041 4.3691739491 2.0030113585 0 0 0 0 0 0 0.000000
1 96 20.9727283758 2.9480025436 3.794307297 0 0 0 0 0 0 0.000000
1 97 19.1910031292 4.3672337071 4.6805647673 0 0 0 0 0 0 0.000000
1 98 20.0585595497 2.9507612769 6.4920083926 0 0 0 0 0 0 0.000000
1 99 19.1476436739 2.9515475543 0.2116517747 0 0 0 0 0 0 0.000000
1 100 18.2390380745 1.5402695025 7.3797837628 0 0 0 0 0 0 0.000000
1 101 17.3384475949 1.5336733339 1.0897196208 0 0 0 0 0 0 0.000000
1 102 18.2553740711 0.1205276583 2.8998315846 0 0 0 0 0 0 0.000000
1 103 16.4323107246 1.5315636332 3.8229889713 0 0 0 0 0 0 0.000000
1 104 17.4065415737 0.10337353 5.5579233142 0 0 0 0 0 0 0.000000
1 105 16.3814918767 0.1356204955 8.2748575964 0 0 0 0 0 0 0.000000
1 106 14.4438753849 1.697517394 0.1702116132 0 0 0 0 0 0 0.000000
1 107 15.5758777041 0.0674979088 2.0152870168 0 0 0 0 0 0 0.000000
1 108 14.4309825294 0.2205272399 4.49979621 0 0 0 0 0 0 0.000000
1 109 18.2418230355 4.3722191079 7.3865446178 0 0 0 0 0 0 0.000000
1 110 17.3482881671 4.3675813207 1.1021358128 0 0 0 0 0 0 0.000000
1 111 18.2517347058 2.9404918649 2.9029098685 0 0 0 0 0 0 0.000000
1 112 16.443611958 4.3656429157 3.8098902397 0 0 0 0 0 0 0.000000
1 113 17.3918122691 2.9708786709 5.5685488712 0 0 0 0 0 0 0.000000
1 114 15.5899957109 4.3448783293 6.4211952744 0 0 0 0 0 0 0.000000
1 115 16.3910742469 2.9853922826 8.2934316912 0 0 0 0 0 0 0.000000
1 116 14.4361943698 4.5240421893 0.1461246263 0 0 0 0 0 0 0.000000
1 117 15.5705487051 2.897807059 2.0225135138 0 0 0 0 0 0 0.000000
1 118 14.4179106186 3.1565021838 4.5551644643 0 0 0 0 0 0 0.000000
2 119 12.78 3.28 4.56 0.19850400 573.07602531 -0.02295600 1.388793 0.239453 0.141449 1.370197
2 120 12.8 4.68 0.10126739 0.17056400 553.04392087 -0.05994600 1.418692 0.238251 0.134286 1.373787
2 121 12.8 0.434 4.56 0.16767400 566.62569154 -0.07408600 1.393376 0.226952 0.155011 1.378241
2 122 12.81 1.85 0.10126739 0.16449400 558.51090954 -0.04105600 1.418243 0.238512 0.154594 1.374690
2 123 13.01 3.83 5.12 0.14512400 670.64165646 -0.03692600 1.385750 0.225358 0.162110 1.372205
2 124 13.03 2.41 0.67126739 0.10992400 663.84802776 -0.05628600 1.391955 0.224553 0.160155 1.375390
2 125 13.03 5.24 0.67 0.10611400 655.44871489 -0.00955600 1.398514 0.223511 0.149155 1.371402
2 126 13.06 0.97 5.12 0.06970400 627.78313924 -0.07567600 1.392976 0.212407 0.158248 1.380183
2 127 13.17 1.92 1.2 0.14006400 488.04206357 -0.05223600 1.408933 0.228958 0.147730 1.369508
2 128 13.17 4.75 1.18 0.12983400 491.21864634 -0.06342600 1.411352 0.227809 0.157372 1.378339
2 129 13.18 3.3 5.65 0.14380400 457.91165000 -0.03663600 1.382611 0.227196 0.175969 1.367081
2 130 13.2 0.484 5.61 0.08572400 473.78634357 -0.07037600 1.391455 0.215241 0.147045 1.389704
2 131 13.62 4.53 4.91 0.17372400 542.78316506 -0.07036600 1.430440 0.259285 0.199660 1.417045
2 132 13.66 3.11 0.45126739 0.09841400 505.84900828 -0.08979600 1.426463 0.254193 0.207843 1.414566
2 133 13.67 0.274 0.45 0.07734400 498.64451868 -0.11123600 1.424672 0.253025 0.206596 1.408953
2 134 13.71 1.67 4.9 -0.01120600 456.25736537 -0.14697600 1.422550 0.236039 0.197898 1.409942
2 135 14.2 1.92 1.82 -0.05094600 580.96795538 -0.18382600 1.351257 0.192007 0.155789 1.353986
2 136 14.2 4.75 1.8 -0.05988600 577.57944098 -0.19287600 1.358437 0.194087 0.156361 1.352509
2 137 14.23 3.31 6.24 -0.05207600 486.94505752 -0.13884600 1.362014 0.200704 0.178220 1.361484
2 138 14.25 0.464 6.2 0.00083400 528.50056841 -0.09760600 1.341867 0.168414 0.156599 1.340863
2 139 14.4 1.67 5.28 -0.01121600 411.94568432 -0.14744600 1.422002 0.235961 0.197749 1.410448
2 140 14.64 0.104 6.21 0.00076400 536.28088088 -0.09660600 1.336962 0.169837 0.156615 1.341025
2 141 14.65 2.92 6.23 -0.05208600 474.58752124 -0.13782600 1.362277 0.200413 0.178333 1.362139
2 142 14.66 1.48 1.83 -0.04394600 577.66455017 -0.19209600 1.356333 0.188643 0.155196 1.368258
2 143 14.66 4.31 1.81 -0.05302600 576.62730241 -0.19413600 1.363206 0.187008 0.156122 1.355652
2 144 15.12 1.68 4.82 0.14712400 411.51293665 0.02123400 1.386076 0.231871 0.196378 1.378248
2 145 15.2 3.11 0.44126739 0.11451400 474.75099075 -0.07788600 1.428946 0.257410 0.210165 1.412279
2 146 15.2 0.264 0.43 0.10664400 481.79503547 -0.08546600 1.430997 0.256030 0.208875 1.415332
2 147 15.7 1.48 1.19 0.17288400 490.07918894 -0.01769600 1.421700 0.237622 0.182973 1.410154
2 148 15.7 4.31 1.18 0.41955400 480.26803893 -0.01549600 1.416329 0.231413 0.180484 1.401786
2 149 15.73 2.93 5.54 0.13946400 439.03083211 -0.01262600 1.404107 0.228575 0.187664 1.383373
2 150 15.73 0.084 5.53 0.11142400 464.32240222 -0.04219600 1.385175 0.220095 0.174692 1.369291
2 151 15.84 0.96 0.64126739 0.13631400 614.04011961 -0.02908600 1.403837 0.230892 0.176442 1.394514
2 152 15.84 3.81 0.66126739 0.14204400 597.04527899 -0.01742600 1.398461 0.227141 0.173401 1.381112
2 153 15.86 2.49 5.06 0.13947400 576.73625407 -0.01267600 1.402506 0.228566 0.187334 1.383597
2 154 15.88 5.29 5.07 0.11143400 605.87335652 -0.04247600 1.385007 0.219954 0.174255 1.367996
2 155 15.91 0.6 5.07 0.11142400 459.27476951 -0.04350600 1.384262 0.219943 0.173834 1.369548
2 156 15.92 3.48 5.07 0.20673400 469.69457225 -0.01288600 1.388594 0.224171 0.187421 1.380845
2 157 16.06 1.55 0.05126739 0.14330400 509.74366982 -0.03971600 1.403915 0.248406 0.200179 1.401984
2 158 16.06 2.95 4.58 0.13946400 528.29300667 -0.01274600 1.402897 0.228698 0.187558 1.382911
2 159 16.06 4.39 0.08126739 0.19665400 524.41620318 0.00261400 1.392849 0.242003 0.183074 1.391364
2 160 16.07 0.104 4.58 0.14476400 540.17842802 -0.03280600 1.379790 0.224416 0.168287 1.369932
2 161 14.2 4.49 3.23 -0.21251600 304.26103705 -0.23445600 1.314516 0.132095 0.127408 1.314847
2 162 14.21 4.75 2.96 -0.21249600 351.16568797 -0.23610600 1.312703 0.132100 0.127667 1.314447
2 163 14.25 1.87 3.07 -0.23634600 321.60203474 -0.25212600 1.311934 0.125822 0.126705 1.321033
2 164 14.29 3.3 7.53 -0.25342600 299.46049603 -0.26935600 1.311649 0.124831 0.126798 1.324829
2 165 14.3 1.71 3.22 -0.22136600 293.25913201 -0.23699600 1.320894 0.095915 0.098238 1.319588
2 166 14.32 0.454 7.53 -0.24577600 295.64069609 -0.26177600 1.321181 0.131216 0.132328 1.328586
2 167 14.35 3.09 7.71 -0.25560600 270.91417472 -0.27146600 1.328049 0.122264 0.125017 1.319703
2 168 14.45 0.334 7.6 -0.24576600 273.58458883 -0.13846600 1.320227 0.130390 0.132620 1.328250
2 169 14.48 3.14 7.62 -0.25560600 270.71904819 -0.27221600 1.326994 0.121510 0.124731 1.319983
2 170 14.56 1.71 3.22 -0.22893600 288.72622491 -0.24465600 1.313520 0.108026 0.110658 1.314316
2 171 14.61 4.49 3.16 -0.21323600 302.97629340 -0.23254600 1.308573 0.122166 0.122478 1.317552
2 172 14.65 5.56 7.53 -0.20220600 312.99787696 -0.22473600 1.313763 0.145702 0.146945 1.327693
2 173 14.67 1.47 2.99 -0.23388600 332.05838928 -0.24992600 1.311435 0.125293 0.124736 1.318108
2 174 14.67 4.31 3.01 -0.21322600 335.63951740 -0.23227600 1.308921 0.121855 0.122021 1.317940
2 175 14.68 2.69 7.54 -0.25557600 311.30961226 -0.27231600 1.328246 0.121677 0.124950 1.320005
2 176 14.68 0.114 7.34 -0.20221600 301.32296878 -0.22469600 1.313422 0.145591 0.146733 1.325631
2 177 14.71 2.91 7.36 -0.25560600 300.31731408 -0.27238600 1.327411 0.122104 0.124604 1.319794
3 178 1.6860700057 0.4729668086 3.0047841041 0 0 0 0 0 0 0.000000
3 179 15.6179346461 1.51888496 6.4017461746 0 0 0 0 0 0 0.000000
