ITEM: TIMESTEP
0
ITEM: NUMBER OF ATOMS
300
ITEM: BOX BOUNDS pp pp pp
0.0 27.7975979
0.0 5.6659999
0.0 8.9587326
ITEM: ATOMS type id x y z SE CD SE_NF BC ZPE ZPE_NF BC_NF
1 1 22.0210243 3.6796901984 5.836179548 0 0 0 0 0 0 0.000000
1 2 27.5743149366 0.8659572406 8.7979398927 0 0 0 1.407096 0 0 0.000000
1 3 -0.2423675731 0.8886263009 2.7994792472 0 0 0 0 0 0 0.000000
1 4 26.1848505062 2.2820804243 4.3242880885 0 0 0 0 0 0 0.000000
1 5 27.5553004461 0.8887686245 5.8386823324 0 0 0 0 0 0 0.000000
1 6 24.7927293689 0.8597793164 5.821685888 0 0 0 0 0 0 0.000000
1 7 26.1804738508 -0.549887886 7.3122917898 0 0 0 0 0 0 0.000000
1 8 24.7841792898 0.8532843799 8.8087624409 0 0 0 0 0 0 0.000000
1 9 26.1690000577 2.2824912772 1.3209148813 0 0 0 0 0 0 0.000000
1 10 23.407319112 2.2707666798 1.3501009714 0 0 0 0 0 0 0.000000
1 11 24.7924990696 0.8604789074 2.837689591 0 0 0 0 0 0 0.000000
1 12 20.6381671492 2.256736329 4.350364011 0 0 0 0 0 0 0.000000
1 13 22.0208334437 0.8471708134 5.836106855 0 0 0 0 0 0 0.000000
1 14 20.6360718853 2.2574135475 7.3335602497 0 0 0 0 0 0 0.000000
1 15 22.0206896265 0.8452000531 -0.1364851611 0 0 0 0 0 0 0.000000
1 16 20.6377867513 2.2570489304 1.357610701 0 0 0 0 0 0 0.000000
1 17 22.0223121175 0.8481422098 2.8501392636 0 0 0 0 0 0 0.000000
1 18 17.8609824054 2.249473056 4.344724249 0 0 0 0 0 0 0.000000
1 19 19.2477129439 0.8371482411 5.8431550179 0 0 0 0 0 0 0.000000
1 20 19.2486137562 0.8368523992 -0.1312668433 0 0 0 0 0 0 0.000000
1 21 23.4055280115 5.1034303187 4.3368357976 0 0 0 0 0 0 0.000000
1 22 26.1805666684 5.1154603889 1.3351555544 0 0 0 0 0 0 0.000000
1 23 24.7936333658 3.6942407009 2.8376244216 0 0 0 0 0 0 0.000000
1 24 26.1764403333 5.1153735643 4.3232139923 0 0 0 0 0 0 0.000000
1 25 27.5552976729 3.6810623066 5.8387752317 0 0 0 0 0 0 0.000000
1 26 24.7936509363 3.6953928676 5.8221001325 0 0 0 0 0 0 0.000000
1 27 26.1682003517 2.282511974 7.3259156858 0 0 0 0 0 0 0.000000
1 28 23.4034006131 5.1039845372 7.3198240964 0 0 0 0 0 0 0.000000
1 29 24.7842651209 3.7023560852 -0.1493678624 0 0 0 0 0 0 0.000000
1 30 23.4049338957 5.1031671984 1.3535295371 0 0 0 0 0 0 0.000000
1 31 23.4095671604 2.2709841687 4.3383768012 0 0 0 0 0 0 0.000000
1 32 20.636137038 5.089791712 4.3487148321 0 0 0 0 0 0 0.000000
1 33 23.4058966484 2.2711388806 7.3219763893 0 0 0 0 0 0 0.000000
1 34 20.6321821358 5.0903692596 7.3313041173 0 0 0 0 0 0 0.000000
1 35 22.0202626873 3.6821731026 -0.1371128069 0 0 0 0 0 0 0.000000
1 36 20.6355773472 5.0899872917 1.360789128 0 0 0 0 0 0 0.000000
1 37 22.0218465718 3.6775988888 2.8502351822 0 0 0 0 0 0 0.000000
1 38 17.8724586515 5.0825089737 4.3321218881 0 0 0 0 0 0 0.000000
1 39 19.2478958411 3.6680053589 5.8428761437 0 0 0 0 0 0 0.000000
1 40 19.2484391072 3.6695002197 -0.1315840011 0 0 0 0 0 0 0.000000
1 41 17.8646198072 2.2508107039 7.3356571905 0 0 0 0 0 0 0.000000
1 42 17.861536862 2.2499319028 1.3651584424 0 0 0 0 0 0 0.000000
1 43 16.4655604331 0.834925558 2.8529820189 0 0 0 0 0 0 0.000000
1 44 15.0715704541 2.2487226244 4.3414306006 0 0 0 0 0 0 0.000000
1 45 16.4841192095 0.813702281 5.8129350538 0 0 0 0 0 0 0.000000
1 46 16.4850038661 0.814651678 -0.1055325861 0 0 0 0 0 0 0.000000
1 47 13.6588606662 3.6868542149 -0.1117031161 0 0 0 0 0 0 0.000000
1 48 15.0725045874 2.2486006433 1.3592245628 0 0 0 0 0 0 0.000000
1 49 19.2580331181 0.8430203006 2.8559202705 0 0 0 0 0 0 0.000000
1 50 17.855133483 5.083683161 7.3343237926 0 0 0 0 0 0 0.000000
1 51 15.0723830663 5.0820271356 1.3645605165 0 0 0 0 0 0 0.000000
1 52 16.4657057033 3.6622173679 2.8526370952 0 0 0 0 0 0 0.000000
1 53 15.0716583162 5.0816229442 4.3345019273 0 0 0 0 0 0 0.000000
1 54 16.4842035538 3.6859037955 5.8120220391 0 0 0 0 0 0 0.000000
1 55 15.0719711972 5.082192907 7.3314732103 0 0 0 0 0 0 0.000000
1 56 16.4848982066 3.6858755372 -0.1048634542 0 0 0 0 0 0 0.000000
1 57 17.8722289771 5.0836940477 1.3786562011 0 0 0 0 0 0 0.000000
1 58 13.6787293003 3.6629773212 2.8457077269 0 0 0 0 0 0 0.000000
1 59 19.2584917428 3.66130478 2.8553011446 0 0 0 0 0 0 0.000000
1 60 5.3430041993 0.8614294127 2.8204477641 0 0 0 0 0 0 0.000000
1 61 6.7320156122 5.1052898073 4.3145782718 0 0 0 0 0 0 0.000000
1 62 5.3437316442 0.8617158558 5.8040063787 0 0 0 0 0 0 0.000000
1 63 6.734275163 5.1058135877 7.2977996057 0 0 0 0 0 0 0.000000
1 64 8.1190139846 0.8482205436 8.7981684698 0 0 0 0 0 0 0.000000
1 65 9.5060309003 5.0933219443 1.3374748831 0 0 0 0 0 0 0.000000
1 66 8.1181816499 0.8492237068 5.8119558893 0 0 0 0 0 0 0.000000
1 67 8.1169629931 0.8511724095 2.8249549691 0 0 0 0 0 0 0.000000
1 68 2.5805203138 0.8890512189 2.7935493811 0 0 0 0 0 0 0.000000
1 69 3.9598757221 5.1155875275 4.3117729507 0 0 0 0 0 0 0.000000
1 70 2.5810080049 0.8899259452 5.8334690496 0 0 0 0 0 0 0.000000
1 71 3.9566540564 5.1169142736 7.3007160304 0 0 0 0 0 0 0.000000
1 72 2.561579438 0.8666660925 8.7923478307 0 0 0 0 0 0 0.000000
1 73 6.7327821281 5.1060203924 1.3311173373 0 0 0 0 0 0 0.000000
1 74 27.5553862445 3.6808908002 2.7995947084 0 0 0 0 0 0 0.000000
1 75 5.3530360133 0.8551702388 8.792008745 0 0 0 0 0 0 0.000000
1 76 1.169267366 5.1199433909 7.3026950302 0 0 0 0 0 0 0.000000
1 77 1.1689998429 5.1194860177 1.3269736267 0 0 0 0 0 0 0.000000
1 78 3.9559171213 5.1162481166 1.3237086138 0 0 0 0 0 0 0.000000
1 79 9.5040586455 5.0929961079 4.3248009307 0 0 0 0 0 0 0.000000
1 80 5.3439395981 3.6950915806 2.819947195 0 0 0 0 0 0 0.000000
1 81 6.7286254854 2.2724646528 4.3154176283 0 0 0 0 0 0 0.000000
1 82 5.3436571512 3.6958375827 5.8045957395 0 0 0 0 0 0 0.000000
1 83 6.7323226352 2.2730259719 7.299901844 0 0 0 0 0 0 0.000000
1 84 8.1189557175 3.6843949567 8.7985046566 0 0 0 0 0 0 0.000000
1 85 9.5034827269 2.2603304398 1.3347347615 0 0 0 0 0 0 0.000000
1 86 8.1169788142 3.6811386389 2.8247466867 0 0 0 0 0 0 0.000000
1 87 2.5801870955 3.6815821319 2.7941408397 0 0 0 0 0 0 0.000000
1 88 3.9510065954 2.2830809307 4.3124512268 0 0 0 0 0 0 0.000000
1 89 2.5809692491 3.6813839036 5.8334671902 0 0 0 0 0 0 0.000000
1 90 3.9680511148 2.2836123723 7.3148066836 0 0 0 0 0 0 0.000000
1 91 2.5615089871 3.7062605973 8.7924421107 0 0 0 0 0 0 0.000000
1 92 6.7303910737 2.272563385 1.3281224056 0 0 0 0 0 0 0.000000
1 93 3.9670036519 2.2836330395 1.3096108211 0 0 0 0 0 0 0.000000
1 94 1.1687496123 2.2860883542 4.3150517196 0 0 0 0 0 0 0.000000
1 95 5.3531564443 3.703609187 8.7917137837 0 0 0 0 0 0 0.000000
1 96 1.1688768958 2.2869313448 7.310638139 0 0 0 0 0 0 0.000000
1 97 -0.2231621789 3.705434796 8.797957341 0 0 0 0 0 0 0.000000
1 98 1.1687040894 2.286704622 1.3210492981 0 0 0 0 0 0 0.000000
1 99 12.2818799061 2.2517125662 4.3318131589 0 0 0 0 0 0 0.000000
1 100 8.1182161236 3.681643443 5.8116623508 0 0 0 0 0 0 0.000000
1 101 13.658839937 0.8141864815 5.8060546272 0 0 0 0 0 0 0.000000
1 102 13.6590266573 0.8146511753 -0.1124769248 0 0 0 0 0 0 0.000000
1 103 10.884633922 0.8462991939 2.8365669547 0 0 0 0 0 0 0.000000
1 104 10.8934946934 0.8390002996 5.8229839402 0 0 0 0 0 0 0.000000
1 105 10.8939161215 0.8385902378 8.8083288884 0 0 0 0 0 0 0.000000
1 106 12.2877922774 5.0845512897 7.3209686816 0 0 0 0 0 0 0.000000
1 107 12.2709433015 5.0847688389 1.36529066 0 0 0 0 0 0 0.000000
1 108 13.6787348565 0.8358617392 2.8457845848 0 0 0 0 0 0 0.000000
1 109 12.2710792879 5.084906433 4.3186629343 0 0 0 0 0 0 0.000000
1 110 9.5048019177 2.2595407245 7.3108059152 0 0 0 0 0 0 0.000000
1 111 13.6585036706 3.6865563404 5.8054939405 0 0 0 0 0 0 0.000000
1 112 10.8938475037 3.670992353 8.8085039612 0 0 0 0 0 0 0.000000
1 113 9.5019865087 2.2599622375 4.3262375067 0 0 0 0 0 0 0.000000
1 114 10.8933615769 3.6706488042 5.8229810166 0 0 0 0 0 0 0.000000
1 115 9.508528417 5.0921505905 7.3094905966 0 0 0 0 0 0 0.000000
1 116 12.2781517671 2.2520924963 7.3216605494 0 0 0 0 0 0 0.000000
1 117 10.8843697912 3.6648464732 2.8365567413 0 0 0 0 0 0 0.000000
1 118 12.2819937511 2.2516524259 1.3514521237 0 0 0 0 0 0 0.000000
2 119 11.5 3.66 4.32 0.16781400 418.48599075 -0.03448600 1.407096 0.258613 0.208966 1.401251
2 120 11.5 3.66 1.3412674 0.16901400 418.13171832 -0.01288600 1.404157 0.258571 0.206414 1.401099
2 121 11.5 3.67 7.31 0.16621400 417.42672263 -0.03608600 1.408261 0.259135 0.209837 1.395494
2 122 11.5 0.8240001 7.31 0.16541400 417.34312958 -0.03748600 1.405831 0.259044 0.208495 1.395164
2 123 11.5 0.8340001 1.34 0.16911400 417.26212090 -0.03498600 1.400992 0.258613 0.206382 1.397960
2 124 11.5 0.8340001 4.32 0.16851400 417.48482461 -0.03458600 1.403356 0.258752 0.206722 1.403220
2 125 11.63 5.08 2.84 0.18911400 427.69210116 -0.01948600 1.399422 0.264532 0.216329 1.404035
2 126 11.66 2.25 2.84 0.17081400 421.25756314 -0.03658600 1.410341 0.260926 0.209762 1.404532
2 127 11.66 2.25 5.82 0.16341400 415.23155614 -0.04278600 1.411996 0.258592 0.204642 1.409587
2 128 11.66 2.25 8.81 0.16471400 418.03509323 -0.04378600 1.407826 0.259040 0.204708 1.405871
2 129 11.67 5.08 5.82 0.16101400 415.18793551 -0.03608600 1.408100 0.256233 0.206414 1.398677
2 130 11.67 5.08 8.81 0.16071400 415.11698458 -0.03778600 1.405987 0.256254 0.204176 1.406469
2 131 12.26 3.67 0.6412674 0.27191400 429.95199046 0.02841400 1.415544 0.285912 0.241345 1.412138
2 132 12.26 5.66 5.81 0.19071400 418.72326851 -0.02388600 1.423207 0.258598 0.200501 1.401672
2 133 12.26 5.66 8.82 0.18961400 419.78033116 -0.02548600 1.423386 0.258222 0.200418 1.402199
2 134 12.26 0.8240001 0.64 0.27141400 430.77983351 0.02811400 1.427496 0.285886 0.241537 1.419237
2 135 12.27 3.66 3.6 0.23811400 422.16090034 0.05351400 1.425957 0.283198 0.239378 1.414789
2 136 12.27 3.67 5.03 0.27121400 427.56112009 0.02851400 1.421933 0.286267 0.241350 1.415636
2 137 12.27 4.5 5.81 0.19271400 419.58421035 -0.02408600 1.403169 0.258722 0.199914 1.402651
2 138 12.27 4.5 8.82 0.19191400 418.33865903 -0.02568600 1.401854 0.258398 0.199589 1.400705
2 139 12.27 0.0440001 2.84 0.19061400 420.68866957 -0.02228600 1.409590 0.266930 0.217875 1.408316
2 140 12.27 0.8240001 5.03 0.27101400 427.46212642 0.02841400 1.439219 0.286066 0.241486 1.424175
2 141 12.27 0.8340001 3.6 0.23891400 420.67013064 0.00701400 1.425058 0.283257 0.239285 1.410933
2 142 12.28 1.64 2.84 0.17211400 416.94351157 -0.03648600 1.409178 0.261889 0.210663 1.397863
2 143 12.28 1.65 5.82 0.16201400 417.13647564 -0.04988600 1.404139 0.260662 0.207218 1.400525
2 144 12.28 1.65 8.81 0.16431400 418.76385992 -0.05118600 1.401289 0.261079 0.206664 1.399906
2 145 12.28 2.85 5.82 0.16101400 419.04493501 -0.05108600 1.417400 0.260645 0.207716 1.406347
2 146 12.28 2.85 8.81 0.16301400 418.89196912 -0.05118600 1.418718 0.261117 0.207113 1.402518
2 147 12.28 2.86 2.84 0.17041400 415.12917957 -0.03508600 1.413476 0.262020 0.211593 1.404531
2 148 12.28 3.66 2.08 0.24141400 422.18387350 0.00871400 1.431001 0.283538 0.239664 1.420333
2 149 12.28 3.66 6.59 0.23231400 425.58368409 -0.00678600 1.426813 0.284537 0.239711 1.421830
2 150 12.28 3.66 8.04 0.23261400 420.64712238 -0.00668600 1.427898 0.284424 0.239853 1.419673
2 151 12.28 4.45 2.84 0.19161400 419.39176371 -0.02318600 1.417634 0.266771 0.216923 1.402538
2 152 12.28 0.8340001 2.08 0.24191400 422.71779998 0.00841400 1.428776 0.283546 0.239516 1.416461
2 153 12.28 0.8340001 6.59 0.23101400 424.91671189 -0.00698600 1.421833 0.284046 0.239634 1.417962
2 154 12.28 0.8340001 8.04 0.23171400 420.27375050 -0.00718600 1.427816 0.284339 0.239701 1.415766
2 155 12.85 5.08 5.81 0.21141400 418.72297343 -0.01148600 1.409389 0.257999 0.193491 1.404036
2 156 12.85 5.08 8.82 0.21021400 420.23738133 -0.00708600 1.406235 0.257636 0.192538 1.402970
2 157 12.9 2.24 2.84 0.16691400 416.75870008 -0.03468600 1.410457 0.259877 0.209177 1.394941
2 158 12.9 2.25 5.82 0.11631400 416.08433747 -0.07268600 1.409780 0.257645 0.213857 1.412323
2 159 12.9 2.25 8.81 0.11791400 412.67210050 -0.07278600 1.414509 0.257473 0.214030 1.409086
2 160 12.91 5.08 2.84 0.17461400 418.01594723 -0.02758600 1.419357 0.263827 0.217478 1.398398
2 161 13.03 3.67 1.37 0.20661400 420.10793457 -0.00578600 1.406396 0.264071 0.212029 1.403072
2 162 13.03 3.67 4.32 0.20281400 419.44734993 -0.00858600 1.405932 0.263573 0.211718 1.402256
2 163 13.03 0.8240001 1.37 0.20571400 418.90472985 -0.00668600 1.425858 0.263653 0.212846 1.404348
2 164 13.03 0.8240001 4.32 0.20231400 418.14339959 -0.00898600 1.423832 0.263278 0.211888 1.409084
2 165 13.66 5.08 5.06 0.30721400 427.80002661 0.05051400 1.430074 0.288331 0.242047 1.413077
2 166 13.67 1.45 1.36 0.18341400 419.29387454 -0.01118600 1.417129 0.266351 0.216856 1.405392
2 167 13.67 1.45 4.33 0.18211400 418.87414034 -0.03068600 1.413686 0.265996 0.216497 1.406540
2 168 13.67 2.24 2.11 0.23911400 422.91194543 0.00441400 1.430049 0.283794 0.239345 1.416934
2 169 13.67 2.24 3.57 0.24031400 422.01589703 0.00661400 1.432882 0.284022 0.239733 1.418275
2 170 13.67 2.25 0.58 0.19031400 421.00547445 -0.03628600 1.436660 0.278689 0.234996 1.429884
2 171 13.67 2.25 5.11 0.18981400 419.12540404 -0.02978600 1.435055 0.278698 0.234938 1.428887
2 172 13.67 2.25 6.52 0.27671400 409.50338846 0.02371400 1.479394 0.284966 0.226863 1.473033
2 173 13.67 2.25 8.12 0.27471400 406.22160948 -0.06708600 1.482070 0.283794 0.213870 1.397214
2 174 13.67 3.04 1.36 0.18441400 418.40201458 -0.03218600 1.412796 0.266051 0.215774 1.400407
2 175 13.67 3.04 4.33 0.18321400 419.07495815 -0.03158600 1.410781 0.265573 0.215583 1.400636
2 176 13.67 4.25 7.32 0.09111400 413.09567070 -0.10978600 1.412986 0.246815 0.196271 1.419382
2 177 13.67 4.29 1.37 0.21451400 419.69814628 -0.00388600 1.406781 0.265866 0.212296 1.398178
2 178 13.67 4.29 4.32 0.21081400 420.16373662 -0.00668600 1.406262 0.265329 0.213144 1.397221
2 179 13.67 5.08 0.62 0.31041400 433.95444652 0.05481400 1.424716 0.288506 0.242260 1.412631
2 180 13.67 5.08 2.12 0.23331400 420.66050649 0.00571400 1.429245 0.281637 0.238376 1.417283
2 181 13.67 5.08 3.56 0.23281400 416.69187012 0.00561400 1.428589 0.281868 0.238583 1.421170
2 182 13.67 5.08 8.09 0.23571400 423.26952587 -0.01328600 1.430111 0.286383 0.239502 1.427410
2 183 13.67 0.1940001 1.37 0.21411400 420.74523388 -0.00638600 1.416103 0.265352 0.211397 1.398221
2 184 13.67 0.1940001 4.32 0.21071400 420.01774525 -0.00818600 1.413290 0.265166 0.209577 1.403219
2 185 13.68 5.08 6.56 0.23541400 421.74204603 -0.00718600 1.430314 0.286375 0.239553 1.423894
2 186 13.68 0.2440001 7.32 0.09161400 414.40594220 -0.11208600 1.432696 0.246117 0.195428 1.423980
2 187 14.3 3.66 1.36 0.17781400 420.45585231 -0.03138600 1.420761 0.263924 0.216670 1.398931
2 188 14.3 3.66 4.33 0.17621400 419.56298760 -0.03058600 1.412394 0.263626 0.216265 1.398367
2 189 14.3 0.8240001 1.36 0.17761400 420.14448256 -0.03138600 1.411384 0.263804 0.216394 1.400838
2 190 14.3 0.8240001 4.33 0.17551400 419.10859430 -0.03158600 1.410228 0.263512 0.215506 1.398350
2 191 14.44 5.08 2.84 0.17071400 415.52934243 -0.03418600 1.421659 0.262175 0.213001 1.404273
2 192 14.45 2.24 2.85 0.16941400 416.09484459 -0.02398600 1.412083 0.261163 0.216466 1.406987
2 193 14.46 5.08 5.83 0.14901400 415.40681713 -0.05918600 1.409371 0.258169 0.204176 1.398058
2 194 14.46 5.08 8.82 0.15601400 417.89844007 -0.05768600 1.403351 0.259151 0.205385 1.403506
2 195 15.06 3.66 6.57 0.30791400 411.18952410 -0.07418600 1.483185 0.292912 0.209869 1.405291
2 196 15.06 0.8240001 6.57 0.30601400 414.69344715 -0.07098600 1.482500 0.292884 0.210229 1.406859
2 197 15.07 1.64 2.85 0.17551400 417.46326042 -0.02378600 1.409025 0.262739 0.217151 1.404608
2 198 15.07 2.85 2.85 0.17461400 415.69939111 -0.02218600 1.422493 0.262884 0.217603 1.404474
2 199 15.07 2.88 5.83 0.27701400 406.50696317 0.04111400 1.469886 0.285504 0.233246 1.459426
2 200 15.07 2.88 8.82 0.27831400 407.66718129 0.04001400 1.470659 0.285514 0.233233 1.458350
2 201 15.07 3.66 0.63 0.20011400 423.91253335 -0.02678600 1.435122 0.280352 0.234853 1.418404
2 202 15.07 3.66 2.08 0.24021400 423.03427706 0.00451400 1.423284 0.283834 0.239481 1.415290
2 203 15.07 3.66 3.61 0.23961400 423.37909484 0.00531400 1.428119 0.283682 0.239093 1.424051
2 204 15.07 3.66 5.07 0.19951400 424.91578173 -0.02178600 1.433574 0.280691 0.235062 1.418374
2 205 15.07 3.66 8.08 0.31271400 409.51434112 -0.07018600 1.471327 0.293134 0.210877 1.405430
2 206 15.07 4.46 2.84 0.18321400 419.01004191 -0.01598600 1.405928 0.263814 0.211863 1.406800
2 207 15.07 4.47 5.83 0.12921400 415.58804859 -0.06988600 1.418472 0.258469 0.211558 1.414212
2 208 15.07 4.47 8.82 0.13601400 416.13548078 -0.06648600 1.417786 0.259523 0.211666 1.410944
2 209 15.07 0.0240001 2.84 0.18291400 417.75436458 -0.02948600 1.422742 0.264473 0.213591 1.398693
2 210 15.07 0.0240001 5.83 0.12721400 414.08490431 -0.07028600 1.416292 0.258970 0.212399 1.405855
2 211 15.07 0.0240001 8.82 0.13351400 416.63656166 -0.06848600 1.413307 0.259606 0.212462 1.406402
2 212 15.07 0.8240001 0.62 0.20011400 424.84009759 -0.03298600 1.432348 0.280415 0.234718 1.417454
2 213 15.07 0.8240001 2.08 0.24111400 422.76916764 0.04481400 1.422913 0.284087 0.239398 1.417995
2 214 15.07 0.8240001 3.61 0.23961400 423.05384484 0.00491400 1.426754 0.283583 0.239152 1.423080
2 215 15.07 0.8240001 5.07 0.19871400 425.68700810 -0.03198600 1.425843 0.280403 0.234484 1.418449
2 216 15.07 0.8240001 8.08 0.31011400 412.76160289 -0.06948600 1.481442 0.293028 0.210512 1.406259
2 217 15.67 5.08 5.83 0.14971400 417.86357429 -0.05908600 1.408151 0.257769 0.204300 1.400355
2 218 15.67 5.08 8.82 0.15621400 415.89947570 -0.05708600 1.405060 0.258781 0.206059 1.397726
2 219 15.68 2.24 2.85 0.16961400 417.25338591 -0.02338600 1.409072 0.260853 0.217207 1.403806
2 220 15.7 5.08 2.84 0.17091400 419.05826442 -0.03248600 1.407345 0.262146 0.214469 1.404278
2 221 15.83 3.66 1.36 0.17911400 416.74786262 -0.02818600 1.406531 0.264078 0.214994 1.407507
2 222 15.83 3.66 4.33 0.17661400 417.21092232 -0.03098600 1.416409 0.263796 0.215515 1.404825
2 223 15.83 0.8240001 1.36 0.17891400 418.38542504 -0.03148600 1.408963 0.263887 0.215400 1.405906
2 224 15.83 0.8240001 4.33 0.17581400 417.26889607 -0.03148600 1.411250 0.263602 0.214418 1.403295
2 225 16.46 1.45 1.36 0.18601400 421.01124942 -0.01958600 1.418254 0.266644 0.216134 1.398381
2 226 16.46 1.45 4.33 0.18351400 419.53500815 -0.03008600 1.416444 0.266224 0.216152 1.401414
2 227 16.46 2.24 2.12 0.24131400 425.59090282 0.00511400 1.426182 0.284178 0.239749 1.422507
2 228 16.46 2.24 3.58 0.24201400 424.95113751 0.00981400 1.424285 0.284235 0.239768 1.414915
2 229 16.46 2.24 5.11 0.19001400 421.41126810 -0.03478600 1.436904 0.278668 0.234645 1.425072
2 230 16.46 2.25 0.58 0.19481400 422.63394711 -0.03498600 1.436744 0.279174 0.235123 1.421272
2 231 16.46 2.25 6.53 0.27601400 408.95863769 0.02221400 1.476278 0.284247 0.220770 1.454453
2 232 16.46 2.25 8.12 0.28071400 408.76511375 0.02641400 1.476184 0.284956 0.220575 1.456069
2 233 16.46 3.04 1.36 0.18651400 419.84521966 -0.03128600 1.407498 0.266146 0.215724 1.408210
2 234 16.46 3.04 4.33 0.18401400 419.60902288 -0.03108600 1.405039 0.265895 0.215337 1.410070
2 235 16.46 4.24 7.33 0.09161400 413.03553929 -0.10448600 1.425230 0.246140 0.196135 1.424754
2 236 16.46 5.08 2.13 0.23521400 425.54965203 0.00621400 1.425421 0.281988 0.238336 1.414997
2 237 16.46 5.08 6.56 0.23681400 423.64803898 -0.01198600 1.429114 0.286366 0.239808 1.417490
2 238 16.46 5.08 8.09 0.23631400 423.32567594 0.02931400 1.426465 0.286182 0.239770 1.416738
2 239 16.46 0.2440001 7.33 0.09281400 414.50947098 -0.11138600 1.415348 0.246062 0.194494 1.431847
2 240 16.47 4.29 1.37 0.21601400 421.10692412 -0.00308600 1.416365 0.265945 0.212439 1.403064
2 241 16.47 4.29 4.32 0.21221400 419.87948236 -0.00328600 1.429865 0.266103 0.212198 1.397257
2 242 16.47 5.08 0.63 0.31201400 423.01266441 0.08721400 1.426784 0.288486 0.242107 1.411539
2 243 16.47 5.08 3.57 0.23391400 425.05779990 0.00791400 1.417579 0.282142 0.238569 1.413479
2 244 16.47 5.08 5.06 0.55241400 422.95013273 0.05131400 1.433345 0.288273 0.241939 1.415988
2 245 16.47 0.1940001 1.37 0.21591400 421.47999624 -0.00548600 1.417079 0.265627 0.210797 1.393871
2 246 16.47 0.1940001 4.32 0.21121400 422.25978323 -0.00688600 1.402681 0.265382 0.210635 1.398413
2 247 17.1 3.66 1.37 0.20811400 419.28936681 -0.00608600 1.413343 0.264340 0.213523 1.409489
2 248 17.1 3.66 4.32 0.20461400 421.15137097 -0.00748600 1.416439 0.264045 0.212409 1.396257
2 249 17.1 0.8240001 1.37 0.20851400 420.45777449 0.11691400 1.416915 0.264254 0.213450 1.396205
2 250 17.1 0.8240001 4.32 0.20401400 420.09192750 -0.00678600 1.405764 0.263835 0.212313 1.396716
2 251 17.22 5.08 2.85 0.17691400 415.70414461 -0.02708600 1.412210 0.263993 0.216191 1.406113
2 252 17.23 2.24 5.84 0.11621400 413.02567308 -0.07258600 1.416348 0.256978 0.213550 1.409097
2 253 17.23 2.25 8.82 0.12201400 414.66358475 -0.07138600 1.418816 0.257507 0.213518 1.408344
2 254 17.24 2.24 2.85 0.17031400 417.63476404 -0.03508600 1.406854 0.260686 0.210330 1.405516
2 255 17.28 5.08 5.82 0.21231400 423.30092024 -0.00998600 1.409928 0.257590 0.193251 1.404123
2 256 17.28 5.08 8.83 0.21151400 420.82193698 -0.01258600 1.410067 0.257326 0.190113 1.403296
2 257 17.85 1.64 2.85 0.17601400 419.11829991 -0.03608600 1.408392 0.262255 0.210429 1.405778
2 258 17.85 1.65 5.84 0.16381400 419.11618180 -0.05008600 1.408843 0.260755 0.206641 1.405298
2 259 17.85 3.66 6.61 0.23381400 422.42595641 -0.00578600 1.434355 0.284497 0.239691 1.420141
2 260 17.85 3.66 8.05 0.23641400 423.98095996 -0.00528600 1.428430 0.284877 0.239818 1.414842
2 261 17.85 0.8240001 8.05 0.23661400 425.19515409 -0.00488600 1.427877 0.284897 nan 1.415239
2 262 17.85 0.8340001 6.61 0.23451400 422.47965427 -0.00538600 1.425668 0.284438 0.239333 1.419177
2 263 17.86 1.65 8.82 0.16841400 416.96826204 -0.04948600 1.414544 0.261493 0.206963 1.398123
2 264 17.86 2.84 5.83 0.16191400 417.35765407 -0.05018600 1.416955 0.260666 0.208366 1.399860
2 265 17.86 2.85 8.82 0.16591400 419.68516159 -0.04958600 1.411296 0.261121 0.208497 1.406276
2 266 17.86 2.86 2.85 0.17421400 416.96473172 -0.03598600 1.416530 0.262537 0.211834 1.395497
2 267 17.86 3.66 2.09 0.24451400 424.13729833 0.01011400 1.424965 0.283991 0.239987 1.412433
2 268 17.86 3.66 3.61 0.24081400 427.30622292 0.00791400 1.417199 0.283554 0.239912 1.411803
2 269 17.86 4.45 2.85 0.19381400 421.17291727 -0.02068600 1.411070 0.267153 0.217316 1.408298
2 270 17.86 0.0440001 2.85 0.19381400 420.33940760 -0.02158600 1.426367 0.267425 0.218382 1.398303
2 271 17.86 0.8340001 2.09 0.24631400 423.31023819 0.01001400 1.430818 0.284157 0.239709 1.415632
2 272 17.86 0.8340001 3.61 0.24201400 428.12090945 0.00791400 1.423176 0.283761 0.239443 1.417592
2 273 17.87 3.66 5.05 0.27371400 428.24931865 0.02951400 1.435139 0.286335 0.241774 1.419605
2 274 17.87 3.67 0.65 0.27331400 427.52757126 0.02981400 1.431253 0.285998 0.241637 1.414382
2 275 17.87 4.5 5.83 0.19501400 419.22439599 -0.02278600 1.413488 0.259105 0.199210 1.398880
2 276 17.87 4.5 8.83 0.19381400 420.10111733 -0.02128600 1.411126 0.258627 0.198446 1.399006
2 277 17.87 5.66 5.83 0.19311400 419.71742064 -0.02228600 1.408477 0.259005 0.201654 1.403745
2 278 17.87 5.66 8.83 0.19201400 419.93311381 -0.02258600 1.409891 0.258814 0.201616 1.405979
2 279 17.87 0.8240001 0.65 0.27521400 427.80712802 0.03271400 1.430943 0.286390 0.241317 1.414132
2 280 17.87 0.8240001 5.05 0.27331400 428.35995826 0.02961400 1.421339 0.286272 0.241731 1.411482
2 281 13.08 3.66 7.32 0.08131400 411.01596638 -0.10888600 1.419532 0.245161 0.195266 1.423304
2 282 13.08 0.8340001 7.32 0.08121400 409.89234190 -0.11568600 1.418396 0.245051 0.195738 1.422540
2 283 13.67 1.4 7.32 0.08121400 404.28212064 -0.11598600 1.420165 0.244835 0.194706 1.421455
2 284 13.67 3.09 7.32 0.08131400 404.26374695 -0.11508600 1.419930 0.244870 0.193866 1.424062
2 285 14.25 3.66 7.32 0.09111400 404.41303961 -0.11118600 1.412723 0.246740 0.195798 1.422341
2 286 14.25 0.8240001 7.32 0.09161400 404.80775998 -0.11138600 1.432660 0.246310 0.195819 1.425607
2 287 14.42 2.25 5.83 0.25801400 407.67875411 0.03711400 1.466784 0.279618 0.232982 1.457425
2 288 14.42 2.25 8.82 0.25761400 407.94654226 0.03451400 1.465447 0.279335 0.231615 1.458823
2 289 15.07 1.61 5.83 0.27811400 410.01668782 0.04321400 1.475713 0.285664 0.236066 1.456879
2 290 15.07 1.61 8.82 0.28021400 409.17287519 0.04201400 1.479152 0.285609 0.235453 1.457589
2 291 15.71 2.24 5.83 0.25781400 406.38052992 0.03611400 1.467747 0.279129 0.231389 1.450876
2 292 15.71 2.25 8.82 0.26171400 407.02842487 0.03621400 1.467799 0.279839 0.231763 1.447707
2 293 15.88 3.66 7.33 0.09161400 404.57473684 -0.11048600 1.424584 0.246068 0.196148 1.424441
2 294 15.88 0.8240001 7.33 0.09281400 405.47217752 -0.11138600 1.413620 0.245671 0.193903 1.432764
2 295 16.46 1.4 7.33 0.08341400 403.58698131 -0.11408600 1.414212 0.245376 0.195040 1.422303
2 296 16.46 3.09 7.33 0.08211400 405.68335927 -0.11388600 1.420547 0.245628 0.194557 1.417626
2 297 17.06 3.66 7.33 0.08211400 412.74069978 -0.11378600 1.418929 0.245258 0.194306 1.418128
2 298 17.06 0.8340001 7.33 0.08341400 411.75509099 -0.11418600 1.413298 0.245047 0.194916 1.423592
3 299 15.0719084391 2.250778856 7.3301449253 0 0 0 0 0 0 0.000000
3 300 1.1698759181 5.1193686431 4.3160141188 0 0 0 0 0 0 0.000000
