ITEM: TIMESTEP
0
ITEM: NUMBER OF ATOMS
183
ITEM: BOX BOUNDS pp pp pp
0.0 27.7198181
0.0 5.6659999
0.0 8.9587326
ITEM: ATOMS type id x y z SE CD SE_NF BC ZPE ZPE_NF BC_NF
1 1 27.0345129574 1.9966862124 6.950524977 0 0 0 0 0 0 0.000000
1 2 26.1933486743 2.0431381027 0.6717244668 0 0 0 0 0 0 0.000000
1 3 27.0267058565 0.5743214971 2.4800739838 0 0 0 0 0 0 0.000000
1 4 25.2650466418 2.0370591013 3.3920565611 0 0 0 0 0 0 0.000000
1 5 26.2047123206 0.6320638291 5.151828253 0 0 0 0 0 0 0.000000
1 6 24.3809867709 2.0336914165 6.0678724034 0 0 0 0 0 0 0.000000
1 7 25.2811037153 0.6146653511 7.8661156277 0 0 0 0 0 0 0.000000
1 8 23.4727647994 2.0331221769 -0.2013060841 0 0 0 0 0 0 0.000000
1 9 24.3771622876 0.6138498189 1.5842839932 0 0 0 0 0 0 0.000000
1 10 22.5780064906 2.03424109 2.487968823 0 0 0 0 0 0 0.000000
1 11 23.4734210507 0.6179586239 4.2804626726 0 0 0 0 0 0 0.000000
1 12 21.6770416181 2.032621837 5.1831202149 0 0 0 0 0 0 0.000000
1 13 22.5771001509 0.616858978 6.9677721753 0 0 0 0 0 0 0.000000
1 14 20.7790449138 2.0340905338 7.8699961394 0 0 0 0 0 0 0.000000
1 15 21.6757281163 0.6163426003 0.6996203445 0 0 0 0 0 0 0.000000
1 16 19.8786425964 2.034391481 1.5994617134 0 0 0 0 0 0 0.000000
1 17 20.7860706494 0.6194439261 3.3877641862 0 0 0 0 0 0 0.000000
1 18 18.979303892 2.0341374366 4.294163608 0 0 0 0 0 0 0.000000
1 19 19.8773408426 0.620397095 6.0821501031 0 0 0 0 0 0 0.000000
1 20 18.9772638704 0.6214857036 -0.1943464095 0 0 0 0 0 0 0.000000
1 21 27.0778705248 4.8417725115 6.9430281617 0 0 0 0 0 0 0.000000
1 22 26.2015629712 4.8788816762 0.6729839811 0 0 0 0 0 0 0.000000
1 23 27.024307737 3.4055007105 2.4805544371 0 0 0 0 0 0 0.000000
1 24 25.2658447921 4.8712523005 3.3942530006 0 0 0 0 0 0 0.000000
1 25 26.2075369842 3.4729793299 5.1583515674 0 0 0 0 0 0 0.000000
1 26 24.3827509183 4.8675790554 6.0657509667 0 0 0 0 0 0 0.000000
1 27 25.2820808287 3.4585154597 7.868267322 0 0 0 0 0 0 0.000000
1 28 23.4730487516 4.8673773227 -0.2026593117 0 0 0 0 0 0 0.000000
1 29 24.3758757297 3.450499838 1.5856003969 0 0 0 0 0 0 0.000000
1 30 22.5762092499 4.8672872736 2.4885974791 0 0 0 0 0 0 0.000000
1 31 23.4734531515 3.4517157141 4.2807144221 0 0 0 0 0 0 0.000000
1 32 21.6750788572 4.8651905622 5.1794782216 0 0 0 0 0 0 0.000000
1 33 22.5781624356 3.451983153 6.9683885938 0 0 0 0 0 0 0.000000
1 34 20.7780187208 4.8665799207 7.8693423416 0 0 0 0 0 0 0.000000
1 35 21.6756978203 3.4504675646 0.7005580037 0 0 0 0 0 0 0.000000
1 36 19.8763943832 4.8674646627 1.5998887236 0 0 0 0 0 0 0.000000
1 37 20.7860290419 3.4451899795 3.3882126253 0 0 0 0 0 0 0.000000
1 38 18.9921497165 4.8659936802 4.2851800234 0 0 0 0 0 0 0.000000
1 39 19.8761106208 3.4492078073 6.0817087584 0 0 0 0 0 0 0.000000
1 40 18.9763466129 3.4514470865 -0.1941319813 0 0 0 0 0 0 0.000000
1 41 18.0820919813 2.0370833461 6.9790107866 0 0 0 0 0 0 0.000000
1 42 17.1715792619 2.0384377185 0.6772772776 0 0 0 0 0 0 0.000000
1 43 18.0769422084 0.6218683454 2.4987051115 0 0 0 0 0 0 0.000000
1 44 16.2581436504 2.0420692897 3.392447215 0 0 0 0 0 0 0.000000
1 45 17.1793849448 0.6148401682 5.1617746222 0 0 0 0 0 0 0.000000
1 46 16.2359001201 0.6504629958 7.852031403 0 0 0 0 0 0 0.000000
1 47 14.2982266844 2.2652595174 8.683259205 0 0 0 0 0 0 0.000000
1 48 15.4045611287 0.5692959464 1.5934710706 0 0 0 0 0 0 0.000000
1 49 14.2984260391 0.8437385531 4.170026777 0 0 0 0 0 0 0.000000
1 50 18.0654077192 4.8697811832 6.9737149239 0 0 0 0 0 0 0.000000
1 51 17.176909416 4.8704083877 0.6920343604 0 0 0 0 0 0 0.000000
1 52 18.0741944066 3.443232669 2.5022478242 0 0 0 0 0 0 0.000000
1 53 16.2621538574 4.8779560694 3.396648327 0 0 0 0 0 0 0.000000
1 54 17.1628935225 3.4458505118 5.1732614507 0 0 0 0 0 0 0.000000
1 55 15.4125536881 4.8306140828 6.0552288882 0 0 0 0 0 0 0.000000
1 56 16.2407026534 3.4851961396 7.8724537298 0 0 0 0 0 0 0.000000
1 57 14.2995591241 5.0988562005 8.6633875101 0 0 0 0 0 0 0.000000
1 58 15.4008125917 3.3939715925 1.5938813276 0 0 0 0 0 0 0.000000
1 59 14.2790571056 3.721142326 4.1644472277 0 0 0 0 0 0 0.000000
1 60 5.115953407 1.0776621259 4.2239036024 0 0 0 0 0 0 0.000000
1 61 6.9178419757 5.3329302989 5.1202837498 0 0 0 0 0 0 0.000000
1 62 6.0167352445 1.08020933 6.9070721762 0 0 0 0 0 0 0.000000
1 63 7.8165443076 5.3352894448 7.8077249061 0 0 0 0 0 0 0.000000
1 64 6.9252290773 1.0819558521 0.6436048773 0 0 0 0 0 0 0.000000
1 65 8.7164672839 1.0855484343 6.0230311526 0 0 0 0 0 0 0.000000
1 66 8.717375705 5.3337913674 1.544341182 0 0 0 0 0 0 0.000000
1 67 7.8144849176 1.0857563985 3.3328239494 0 0 0 0 0 0 0.000000
1 68 2.3754454427 1.0449804884 5.1359270447 0 0 0 0 0 0 0.000000
1 69 4.2213986649 5.3274427343 6.0097839535 0 0 0 0 0 0 0.000000
1 70 3.3186607274 1.0836556211 7.827154072 0 0 0 0 0 0 0.000000
1 71 5.119072019 -0.333114121 8.694176123 0 0 0 0 0 0 0.000000
1 72 4.2165278825 1.0769429732 1.5314625302 0 0 0 0 0 0 0.000000
1 73 6.0177893814 5.3318074196 2.4308424409 0 0 0 0 0 0 0.000000
1 74 0.4379292405 -0.5700341747 4.3046324039 0 0 0 0 0 0 0.000000
1 75 0.4384425248 0.8531572655 -0.136895832 0 0 0 0 0 0 0.000000
1 76 2.3990924143 -0.3455305985 0.6381082509 0 0 0 0 0 0 0.000000
1 77 1.544010407 1.1261151047 2.4353813491 0 0 0 0 0 0 0.000000
1 78 3.3105049224 -0.3416034815 3.3522102246 0 0 0 0 0 0 0.000000
1 79 8.7177522009 3.9163136005 6.0224335043 0 0 0 0 0 0 0.000000
1 80 5.1151900838 3.9140557376 4.2242049239 0 0 0 0 0 0 0.000000
1 81 6.9165476129 2.500387985 5.1208083609 0 0 0 0 0 0 0.000000
1 82 6.0156474539 3.9176115064 6.9074340206 0 0 0 0 0 0 0.000000
1 83 7.8145102143 2.5026568798 7.811334419 0 0 0 0 0 0 0.000000
1 84 6.9253101605 3.9224147691 0.6430138211 0 0 0 0 0 0 0.000000
1 85 8.715926996 2.5012509483 1.5436288284 0 0 0 0 0 0 0.000000
1 86 7.8142928421 3.9171841093 3.3317905285 0 0 0 0 0 0 0.000000
1 87 2.3798202318 3.8761572318 5.1162548145 0 0 0 0 0 0 0.000000
1 88 4.2048535062 2.4948993181 6.0154856828 0 0 0 0 0 0 0.000000
1 89 3.3031657071 3.9185862603 7.8160632209 0 0 0 0 0 0 0.000000
1 90 5.1315894291 2.5005576782 8.703233048 0 0 0 0 0 0 0.000000
1 91 4.2142075867 3.9218012817 1.5280712805 0 0 0 0 0 0 0.000000
1 92 6.0157194245 2.4987248669 2.4306807905 0 0 0 0 0 0 0.000000
1 93 0.4389398965 2.2617480715 4.3259195078 0 0 0 0 0 0 0.000000
1 94 1.552959681 2.5329760859 6.9345588276 0 0 0 0 0 0 0.000000
1 95 0.4190713112 3.6448213457 8.8269297106 0 0 0 0 0 0 0.000000
1 96 2.4023037609 2.4846139677 0.6334218901 0 0 0 0 0 0 0.000000
1 97 1.5404926345 3.9663397695 2.4350798411 0 0 0 0 0 0 0.000000
1 98 3.3163301253 2.4927436671 3.3383720438 0 0 0 0 0 0 0.000000
1 99 11.4208146065 1.0867591183 5.1249924168 0 0 0 0 0 0 0.000000
1 100 13.1744460819 5.3705291654 6.0423339627 0 0 0 0 0 0 0.000000
1 101 12.3437737538 1.066691526 7.8396586869 0 0 0 0 0 0 0.000000
1 102 13.1684510544 1.1275390426 1.5535530296 0 0 0 0 0 0 0.000000
1 103 9.6121106125 5.3350048308 4.2332053459 0 0 0 0 0 0 0.000000
1 104 10.5204265219 5.3334387259 6.9228517659 0 0 0 0 0 0 0.000000
1 105 9.6132902121 1.0835417043 8.7106618956 0 0 0 0 0 0 0.000000
1 106 11.4061272797 5.3294854602 0.6410187842 0 0 0 0 0 0 0.000000
1 107 10.5167731265 1.0883492545 2.4478095853 0 0 0 0 0 0 0.000000
1 108 12.3328845423 5.324207856 3.3609520814 0 0 0 0 0 0 0.000000
1 109 11.4224867399 3.9085704672 5.1232520897 0 0 0 0 0 0 0.000000
1 110 13.2181163868 2.5250592681 6.0488866159 0 0 0 0 0 0 0.000000
1 111 12.3471579647 3.8917579018 7.8331074573 0 0 0 0 0 0 0.000000
1 112 13.1660495018 3.9618529596 1.5531205273 0 0 0 0 0 0 0.000000
1 113 9.6124501339 2.5013700826 4.2347120391 0 0 0 0 0 0 0.000000
1 114 10.5229414824 2.499710121 6.9250774288 0 0 0 0 0 0 0.000000
1 115 9.613478852 3.9159283085 8.7103631303 0 0 0 0 0 0 0.000000
1 116 11.4067910565 2.4955558344 0.6386484622 0 0 0 0 0 0 0.000000
1 117 10.5158667536 3.9171125055 2.4462784908 0 0 0 0 0 0 0.000000
1 118 12.3419549237 2.4881501205 3.360052392 0 0 0 0 0 0 0.000000
2 119 12.68 2.48 8.58 0.23291400 396.89712166 0.03771400 1.396732 0.243139 0.179967 1.381129
2 120 12.68 5.31 8.57 0.21831400 393.73977780 0.01791400 1.400258 0.241797 0.176048 1.382381
2 121 12.68 1.0640001 4.09 0.25441400 396.36996822 0.04721400 1.398559 0.244069 0.180146 1.377808
2 122 12.9 3.04 0.1812674 0.16431400 381.86997662 0.00051400 1.392436 0.227661 0.177471 1.377145
2 123 12.9 4.48 4.66 0.20811400 385.15011151 0.03001400 1.392976 0.232623 0.179312 1.375707
2 124 12.91 0.2040001 0.1812674 0.15681400 379.42972864 -0.00788600 1.394212 0.225598 0.172160 1.372963
2 125 12.92 1.63 4.66 0.18261400 377.89237502 0.02291400 1.393576 0.226945 0.175829 1.377237
2 126 13.04 2.54 0.7312674 0.22431400 386.77137665 0.01731400 1.395810 0.235272 0.171558 1.393217
2 127 13.04 5.37 0.7212674 0.19921400 383.73954053 -0.00208600 1.397284 0.233905 0.174191 1.365040
2 128 13.05 3.94 5.23 0.24241400 384.26465934 0.03641400 1.406426 0.239930 0.182366 1.387443
2 129 13.06 1.1140001 5.21 0.24811400 386.67765600 0.03761400 1.408896 0.233981 0.164493 1.364468
2 130 13.52 3.68 8.94 0.15091400 373.43849122 -0.04298600 1.413148 0.253987 0.206929 1.396259
2 131 13.52 0.8440001 8.94 0.15601400 373.48813746 -0.03888600 1.410962 0.253699 0.205331 1.392944
2 132 13.54 2.27 4.45 0.15881400 366.93052377 -0.03328600 1.419188 0.248773 0.201954 1.400716
2 133 14.0 2.54 1.3312674 0.05541400 340.29541284 -0.11968600 1.358047 0.212261 0.152238 1.323576
2 134 14.0 5.37 1.3112674 0.03611400 338.46090354 -0.13318600 1.363089 0.213860 0.152096 1.371702
2 135 14.01 3.95 5.79 0.09151400 340.93924339 -0.05568600 1.376530 0.215000 0.180400 1.370860
2 136 14.03 1.0940001 5.78 0.29401400 346.05610850 0.02981400 1.410471 0.231482 0.163377 1.382740
2 137 14.38 0.7440001 7.19 -0.17528600 273.57613762 -0.20078600 1.334680 0.121328 0.120045 1.334913
2 138 14.57 1.98 1.3312674 0.06041400 340.61737107 -0.11898600 1.362216 0.214511 0.152810 1.325167
2 139 14.57 4.81 1.3212674 0.03271400 335.97370879 -0.13238600 1.369602 0.214730 0.152203 1.365605
2 140 14.57 0.5740001 5.79 0.29151400 343.76839365 0.03041400 1.423445 0.233991 0.162514 1.389143
2 141 14.59 3.4 5.76 -0.19588600 342.50646528 -0.22008600 1.307857 0.130419 0.130294 1.318510
2 142 15.03 2.28 4.48 0.26391400 366.85697325 0.07081400 1.444704 0.252124 0.205390 1.413400
2 143 15.05 3.68 0.0212674 0.15631400 375.41464387 -0.04038600 1.424157 0.253293 0.204567 1.403930
2 144 15.06 0.8440001 0.0112674 0.15551400 374.53104098 -0.03588600 1.418051 0.252171 0.204491 1.402543
2 145 15.07 5.1 4.48 0.20401400 382.13447186 -0.00678600 1.420385 0.256446 0.204505 1.401436
2 146 15.51 3.4 5.22 0.35121400 382.03543712 0.04411400 1.440162 0.226207 0.186263 1.382783
2 147 15.53 1.98 0.7612674 0.21381400 384.88645733 0.01931400 1.407726 0.235831 0.182209 1.385883
2 148 15.53 4.81 0.7612674 0.18971400 379.25245383 0.01441400 1.410889 0.233170 0.183981 1.396752
2 149 15.53 0.5740001 5.22 0.21181400 391.19671842 0.05211400 1.390354 0.227748 0.177644 1.380981
2 150 15.64 2.91 4.68 0.27641400 375.79917173 0.04861400 1.406150 0.217446 0.185868 1.381739
2 151 15.67 1.47 0.2212674 0.17021400 380.22126855 0.01351400 1.392576 0.227311 0.177340 1.375716
2 152 15.67 4.32 0.2312674 0.17331400 378.03684634 0.01691400 1.394862 0.224980 0.172513 1.376831
2 153 15.67 0.0740001 4.69 0.21181400 384.62642828 0.04371400 1.390234 0.227775 0.177484 1.381054
2 154 15.89 3.45 4.13 0.23521400 392.97308995 0.04381400 1.396822 0.239021 0.186067 1.387195
2 155 15.91 2.06 8.59 0.26461400 399.54565584 0.05291400 1.395588 0.244290 0.176539 1.379317
2 156 15.91 4.9 8.61 0.27231400 394.71788158 0.11231400 1.397810 0.241874 0.163405 1.378883
2 157 15.91 0.6240001 4.13 0.27711400 400.68520608 0.05891400 1.400822 0.243166 0.177797 1.385906
2 158 13.97 2.54 2.46 -0.19828600 277.26149505 -0.22388600 1.314605 0.136527 0.134356 1.319835
2 159 13.98 5.37 2.47 -0.18758600 278.20661425 -0.21088600 1.311474 0.130343 0.129635 1.322713
2 160 14.01 3.96 6.96 -0.19588600 278.52064983 -0.21878600 1.309192 0.129751 0.130329 1.318600
2 161 14.02 2.72 2.62 -0.19828600 279.28481231 -0.20898600 1.313753 0.135955 0.134250 1.318779
2 162 14.02 5.53 2.61 -0.18758600 280.67518654 -0.21078600 1.310945 0.131067 0.129318 1.321480
2 163 14.02 1.0940001 6.98 -0.17538600 281.00164228 -0.20068600 1.332135 0.122082 0.120317 1.334775
2 164 14.04 4.11 7.1 -0.19588600 280.34811987 -0.21988600 1.307418 0.131219 0.129948 1.319483
2 165 14.05 1.25 7.13 -0.17538600 283.33863355 -0.20058600 1.332812 0.122365 0.120574 1.333473
2 166 14.21 3.77 7.2 -0.19998600 270.15880540 -0.21778600 1.318409 0.098062 0.102491 1.317376
2 167 14.24 2.28 2.78 -0.18858600 267.52503817 -0.20348600 1.312966 0.098501 0.101277 1.316600
2 168 14.24 5.11 2.75 -0.17228600 268.62058492 -0.18838600 1.312364 0.091303 0.095351 1.316332
2 169 14.35 0.8540001 7.29 -0.17538600 270.74583531 -0.20038600 1.334101 0.121843 0.120600 1.333908
2 170 14.36 3.62 7.24 -0.19998600 274.27554473 -0.21128600 1.316300 0.098085 0.103409 1.317598
2 171 14.39 2.28 2.84 -0.18848600 268.31593607 -0.18058600 1.311792 0.096370 0.100000 1.318189
2 172 14.42 5.11 2.83 -0.17628600 271.74297057 -0.18838600 1.314658 0.101125 0.100985 1.317461
2 173 14.44 2.07 2.67 -0.20238600 269.04044183 -0.22218600 1.310751 0.132229 0.132518 1.319005
2 174 14.48 4.88 2.63 -0.19908600 271.89391096 -0.18728600 1.311738 0.132189 0.133211 1.318506
2 175 14.53 1.9 2.61 -0.20238600 275.62511931 -0.22218600 1.310835 0.132079 0.132486 1.319827
2 176 14.53 0.4340001 7.1 -0.14448600 282.50095117 -0.17588600 1.329067 0.144149 0.141278 1.334501
2 177 14.55 1.98 2.54 -0.20238600 274.67160473 -0.22188600 1.310904 0.131726 0.132392 1.319022
2 178 14.55 3.25 7.12 -0.19998600 283.33255044 -0.21808600 1.317116 0.098069 0.103494 1.318048
2 179 14.55 4.81 2.54 -0.19908600 275.93281914 -0.21928600 1.314634 0.133198 0.133346 1.318281
2 180 14.56 0.5640001 6.98 -0.14448600 280.88003736 -0.17568600 1.329139 0.144092 0.141336 1.334451
2 181 14.59 3.41 6.97 -0.20008600 280.84875441 -0.21358600 1.314444 0.096192 0.102762 1.321188
3 182 15.4070911926 1.9876396144 6.0647726552 0 0 0 0 0 0 0.000000
3 183 1.5469360487 -0.290582968 6.9244318117 0 0 0 0 0 0 0.000000
