ITEM: TIMESTEP
0
ITEM: NUMBER OF ATOMS
192
ITEM: BOX BOUNDS pp pp pp
0.0 27.7344971
0.0 5.6659999
0.0 8.9587326
ITEM: ATOMS type id x y z SE CD SE_NF BC ZPE ZPE_NF BC_NF
1 1 27.0620285866 1.9676185486 6.9393526469 0 0 0 0 0 0 0.000000
1 2 26.218562473 2.0311809709 0.6629797053 0 0 0 1.389981 0 0 0.000000
1 3 27.0620285866 0.5511185486 2.4599863469 0 0 0 0 0 0 0.000000
1 4 25.2957647712 2.0222014455 3.3805272993 0 0 0 0 0 0 0.000000
1 5 26.218562473 0.6146809709 5.1423461053 0 0 0 0 0 0 0.000000
1 6 24.3987027355 2.0191403712 6.0567275984 0 0 0 0 0 0 0.000000
1 7 25.2957647712 0.6057014455 7.8598937993 0 0 0 0 0 0 0.000000
1 8 23.4922514647 2.0208850124 -0.2124047823 0 0 0 0 0 0 0.000000
1 9 24.3987027355 0.6026403712 1.5773613984 0 0 0 0 0 0 0.000000
1 10 22.5928895458 2.0187402832 2.4741523459 0 0 0 0 0 0 0.000000
1 11 23.4922514647 0.6043850124 4.2669612177 0 0 0 0 0 0 0.000000
1 12 21.6930048421 2.017385442 5.1622120524 0 0 0 0 0 0 0.000000
1 13 22.5928895458 0.6022402832 6.9535186459 0 0 0 0 0 0 0.000000
1 14 20.796432937 2.015782148 7.8509251158 0 0 0 0 0 0 0.000000
1 15 21.6930048421 0.600885442 0.6828459524 0 0 0 0 0 0 0.000000
1 16 19.8964542181 2.015433613 1.5791052266 0 0 0 0 0 0 0.000000
1 17 20.796432937 0.599282148 3.3715584158 0 0 0 0 0 0 0.000000
1 18 18.9963722128 2.0156678697 4.2639727707 0 0 0 0 0 0 0.000000
1 19 19.8964542181 0.598933613 6.0584717266 0 0 0 0 0 0 0.000000
1 20 18.9963722128 0.5991678697 -0.2153937293 0 0 0 0 0 0 0.000000
1 21 27.0620285866 4.8006183486 6.9393526469 0 0 0 0 0 0 0.000000
1 22 26.218562473 4.8641807709 0.6629797053 0 0 0 0 0 0 0.000000
1 23 27.0620285866 3.3841185486 2.4599863469 0 0 0 0 0 0 0.000000
1 24 25.2957647712 4.8552012455 3.3805272993 0 0 0 0 0 0 0.000000
1 25 26.218562473 3.4476809709 5.1423461053 0 0 0 0 0 0 0.000000
1 26 24.3987027355 4.8521401712 6.0567275984 0 0 0 0 0 0 0.000000
1 27 25.2957647712 3.4387014455 7.8598937993 0 0 0 0 0 0 0.000000
1 28 23.4922514647 4.8538848124 -0.2124047823 0 0 0 0 0 0 0.000000
1 29 24.3987027355 3.4356403712 1.5773613984 0 0 0 0 0 0 0.000000
1 30 22.5928895458 4.8517400832 2.4741523459 0 0 0 0 0 0 0.000000
1 31 23.4922514647 3.4373850124 4.2669612177 0 0 0 0 0 0 0.000000
1 32 21.6930048421 4.850385242 5.1622120524 0 0 0 0 0 0 0.000000
1 33 22.5928895458 3.4352402832 6.9535186459 0 0 0 0 0 0 0.000000
1 34 20.796432937 4.848781948 7.8509251158 0 0 0 0 0 0 0.000000
1 35 21.6930048421 3.433885442 0.6828459524 0 0 0 0 0 0 0.000000
1 36 19.8964542181 4.848433413 1.5791052266 0 0 0 0 0 0 0.000000
1 37 20.796432937 3.432282148 3.3715584158 0 0 0 0 0 0 0.000000
1 38 18.9963722128 4.8486676697 4.2639727707 0 0 0 0 0 0 0.000000
1 39 19.8964542181 3.431933613 6.0584717266 0 0 0 0 0 0 0.000000
1 40 18.9963722128 3.4321678697 -0.2153937293 0 0 0 0 0 0 0.000000
1 41 18.0903407148 2.0121619842 6.9499733192 0 0 0 0 0 0 0.000000
1 42 17.1911819051 2.0134799561 0.666545784 0 0 0 0 0 0 0.000000
1 43 18.0903407148 0.5956619842 2.4706070192 0 0 0 0 0 0 0.000000
1 44 16.273240801 2.0212024364 3.3818805396 0 0 0 0 0 0 0.000000
1 45 17.1911819051 0.5969799561 5.145911784 0 0 0 0 0 0 0.000000
1 46 15.4216546589 1.9530310244 6.0640107755 0 0 0 0 0 0 0.000000
1 47 16.273240801 0.6047024364 7.8612467396 0 0 0 0 0 0 0.000000
1 48 14.3124122334 2.2589716882 8.6665878281 0 0 0 0 0 0 0.000000
1 49 15.4216546589 0.5365310244 1.5846444755 0 0 0 0 0 0 0.000000
1 50 14.3124122334 0.8424716882 4.1872213281 0 0 0 0 0 0 0.000000
1 51 18.0903407148 4.8451617842 6.9499733192 0 0 0 0 0 0 0.000000
1 52 17.1911819051 4.8464797561 0.666545784 0 0 0 0 0 0 0.000000
1 53 18.0903407148 3.4286619842 2.4706070192 0 0 0 0 0 0 0.000000
1 54 16.273240801 4.8542022364 3.3818805396 0 0 0 0 0 0 0.000000
1 55 17.1911819051 3.4299799561 5.145911784 0 0 0 0 0 0 0.000000
1 56 15.4216546589 4.7860308244 6.0640107755 0 0 0 0 0 0 0.000000
1 57 16.273240801 3.4377024364 7.8612467396 0 0 0 0 0 0 0.000000
1 58 14.3124122334 5.0919714882 8.6665878281 0 0 0 0 0 0 0.000000
1 59 15.4216546589 3.3695310244 1.5846444755 0 0 0 0 0 0 0.000000
1 60 14.3124122334 3.6754716882 4.1872213281 0 0 0 0 0 0 0.000000
1 61 8.7256409458 1.0975597168 6.0366138541 0 0 0 0 0 0 0.000000
1 62 5.1291226128 1.1006321303 4.2467937293 0 0 0 0 0 0 0.000000
1 63 6.929183937 5.350017752 5.1392077842 0 0 0 0 0 0 0.000000
1 64 6.0292056181 1.100866387 6.9316611734 0 0 0 0 0 0 0.000000
1 65 7.8257558421 5.348414458 7.8279203476 0 0 0 0 0 0 0.000000
1 66 6.929183937 1.100517852 0.6598411842 0 0 0 0 0 0 0.000000
1 67 8.7256409458 5.3470596168 1.5572476541 0 0 0 0 0 0 0.000000
1 68 7.8257558421 1.098914558 3.3485538476 0 0 0 0 0 0 0.000000
1 69 2.405991101 1.0950975636 5.1288856604 0 0 0 0 0 0 0.000000
1 70 4.2230921148 5.3536379158 6.0401591808 0 0 0 0 0 0 0.000000
1 71 3.3239329051 1.1028200439 7.844220616 0 0 0 0 0 0 0.000000
1 72 5.1291226128 5.3501320303 8.7261599293 0 0 0 0 0 0 0.000000
1 73 4.2230921148 1.1041380158 1.5607929808 0 0 0 0 0 0 0.000000
1 74 6.0292056181 5.350366287 2.4522945734 0 0 0 0 0 0 0.000000
1 75 0.4451636334 -0.5591716882 4.3235447719 0 0 0 0 0 0 0.000000
1 76 1.5544057589 -0.2532310244 6.9261219245 0 0 0 0 0 0 0.000000
1 77 0.4451636334 0.8573283118 8.8029108719 0 0 0 0 0 0 0.000000
1 78 2.405991101 5.3445974636 0.6495190604 0 0 0 0 0 0 0.000000
1 79 1.5544057589 1.1632689756 2.4467556245 0 0 0 0 0 0 0.000000
1 80 3.3239329051 5.3523199439 3.364854016 0 0 0 0 0 0 0.000000
1 81 8.7256409458 3.9305595168 6.0366138541 0 0 0 0 0 0 0.000000
1 82 5.1291226128 3.9336319303 4.2467937293 0 0 0 0 0 0 0.000000
1 83 6.929183937 2.517017852 5.1392077842 0 0 0 0 0 0 0.000000
1 84 6.0292056181 3.933866187 6.9316611734 0 0 0 0 0 0 0.000000
1 85 7.8257558421 2.515414558 7.8279203476 0 0 0 0 0 0 0.000000
1 86 6.929183937 3.933517652 0.6598411842 0 0 0 0 0 0 0.000000
1 87 8.7256409458 2.5140597168 1.5572476541 0 0 0 0 0 0 0.000000
1 88 7.8257558421 3.931914358 3.3485538476 0 0 0 0 0 0 0.000000
1 89 2.405991101 3.9280973636 5.1288856604 0 0 0 0 0 0 0.000000
1 90 4.2230921148 2.5206380158 6.0401591808 0 0 0 0 0 0 0.000000
1 91 3.3239329051 3.9358198439 7.844220616 0 0 0 0 0 0 0.000000
1 92 5.1291226128 2.5171321303 8.7261599293 0 0 0 0 0 0 0.000000
1 93 4.2230921148 3.9371378158 1.5607929808 0 0 0 0 0 0 0.000000
1 94 6.0292056181 2.517366387 2.4522945734 0 0 0 0 0 0 0.000000
1 95 0.4451636334 2.2738283118 4.3235447719 0 0 0 0 0 0 0.000000
1 96 1.5544057589 2.5797689756 6.9261219245 0 0 0 0 0 0 0.000000
1 97 0.4451636334 3.6903281118 8.8029108719 0 0 0 0 0 0 0.000000
1 98 2.405991101 2.5115975636 0.6495190604 0 0 0 0 0 0 0.000000
1 99 1.5544057589 3.9962687756 2.4467556245 0 0 0 0 0 0 0.000000
1 100 3.3239329051 2.5193200439 3.364854016 0 0 0 0 0 0 0.000000
1 101 11.4285171712 1.0940985545 5.1302391007 0 0 0 0 0 0 0.000000
1 102 13.1947810866 5.3981813514 6.0507800531 0 0 0 0 0 0 0.000000
1 103 12.351314873 1.0851190291 7.8477867947 0 0 0 0 0 0 0.000000
1 104 13.1947810866 1.1486814514 1.5714136531 0 0 0 0 0 0 0.000000
1 105 9.6250029647 5.3449148876 4.2438047823 0 0 0 0 0 0 0.000000
1 106 10.5314542355 5.3466595288 6.9334048016 0 0 0 0 0 0 0.000000
1 107 9.6250029647 1.0954149876 8.7231709823 0 0 0 0 0 0 0.000000
1 108 11.4285171712 5.3435984545 0.6508730007 0 0 0 0 0 0 0.000000
1 109 10.5314542355 1.0971596288 2.4540387016 0 0 0 0 0 0 0.000000
1 110 12.351314873 5.3346189291 3.3684201947 0 0 0 0 0 0 0.000000
1 111 11.4285171712 3.9270983545 5.1302391007 0 0 0 0 0 0 0.000000
1 112 13.1947810866 2.5651814514 6.0507800531 0 0 0 0 0 0 0.000000
1 113 12.351314873 3.9181188291 7.8477867947 0 0 0 0 0 0 0.000000
1 114 13.1947810866 3.9816812514 1.5714136531 0 0 0 0 0 0 0.000000
1 115 9.6250029647 2.5119149876 4.2438047823 0 0 0 0 0 0 0.000000
1 116 10.5314542355 2.5136596288 6.9334048016 0 0 0 0 0 0 0.000000
1 117 9.6250029647 3.9284147876 8.7231709823 0 0 0 0 0 0 0.000000
1 118 11.4285171712 2.5105985545 0.6508730007 0 0 0 0 0 0 0.000000
1 119 10.5314542355 3.9301594288 2.4540387016 0 0 0 0 0 0 0.000000
1 120 12.351314873 2.5016190291 3.3684201947 0 0 0 0 0 0 0.000000
2 121 12.69 2.5 8.58 0.20111400 394.26314766 -0.00558600 1.389981 0.242098 0.174127 1.374414
2 122 12.69 3.91 4.1 0.20111400 394.53855347 -0.00548600 1.390424 0.242108 0.175243 1.375970
2 123 12.69 5.33 8.58 0.20111400 394.14630763 -0.00548600 1.389977 0.241913 0.174428 1.374933
2 124 12.69 1.0840001 4.1 0.20111400 394.32438978 -0.00548600 1.389981 0.241939 0.174198 1.372836
2 125 12.93 1.64 4.67 0.11951400 376.32597465 -0.03328600 1.389351 0.222961 0.172752 1.374057
2 126 12.93 3.06 0.1912674 0.11951400 376.30329774 -0.03328600 1.387114 0.223112 0.173142 1.373016
2 127 12.93 4.48 4.67 0.11951400 376.01825176 -0.03298600 1.389021 0.223101 0.173408 1.372294
2 128 12.93 0.2240001 0.1912674 0.11951400 376.19129485 -0.03328600 1.389352 0.223063 0.172852 1.373205
2 129 13.07 2.56 0.7412674 0.17041400 382.74660695 -0.02528600 1.398574 0.232609 0.177404 1.376738
2 130 13.07 3.98 5.22 0.17041400 382.24565726 -0.02568600 1.399316 0.232333 0.176730 1.374714
2 131 13.07 5.39 0.7412674 0.17041400 382.96209224 -0.02508600 1.398578 0.232744 0.177833 1.377714
2 132 13.07 1.1440001 5.22 0.17041400 382.75878125 -0.02598600 1.398571 0.233011 0.175842 1.373424
2 133 13.53 2.25 4.47 0.11421400 369.34154638 -0.07198600 1.413480 0.248959 0.202583 1.395313
2 134 13.53 3.67 8.95 0.11421400 368.93210816 -0.06538600 1.413249 0.248994 0.203340 1.395362
2 135 13.53 5.09 4.47 0.11421400 369.24715827 -0.07178600 1.412951 0.249010 0.202690 1.394217
2 136 13.53 0.8340001 8.95 0.11421400 369.23355806 -0.07128600 1.413477 0.248989 0.202999 1.396306
2 137 14.0 2.56 1.3012674 0.03971400 343.40509407 -0.12668600 1.370776 0.222008 0.178471 1.358937
2 138 14.0 3.98 5.78 0.03971400 343.18437842 -0.12578600 1.370945 0.222147 0.178042 1.358779
2 139 14.0 5.39 1.3012674 0.03971400 343.17167493 -0.12668600 1.370931 0.222064 0.178530 1.357883
2 140 14.0 1.1440001 5.78 0.03971400 343.35300649 -0.12668600 1.371026 0.222242 0.178006 1.358961
2 141 14.44 2.11 2.71 -0.21938600 268.19381228 -0.26458600 1.306991 0.110693 0.132756 1.326327
2 142 14.44 3.53 7.19 -0.21938600 268.66501025 -0.26498600 1.307262 0.109579 0.132053 1.323015
2 143 14.44 4.95 2.71 -0.21938600 268.48479703 -0.25118600 1.308449 0.109153 0.132434 1.327929
2 144 14.44 0.6940001 7.19 -0.21938600 268.35442525 -0.26488600 1.304640 0.110116 0.132610 1.327204
2 145 14.61 1.95 1.3012674 0.03871400 342.70084077 -0.12638600 1.372969 0.222726 0.178850 1.360397
2 146 14.61 3.36 5.78 0.03871400 343.06962817 -0.12618600 1.372347 0.222656 0.180045 1.361813
2 147 14.61 4.78 1.3012674 0.03871400 342.92095395 -0.12628600 1.372947 0.222786 0.178890 1.361022
2 148 14.61 0.5340001 5.78 0.03871400 342.58599959 -0.12628600 1.372972 0.222651 0.179397 1.360293
2 149 15.08 2.25 4.48 0.11381400 369.80018108 -0.07258600 1.416702 0.249004 0.202641 1.399551
2 150 15.08 3.67 0.0012674 0.11381400 369.66739936 -0.07208600 1.417291 0.248863 0.202593 1.401261
2 151 15.08 5.09 4.48 0.11381400 369.36905224 -0.07238600 1.416782 0.249110 0.202279 1.400184
2 152 15.08 0.8340001 0.0012674 0.11381400 369.97797486 -0.07238600 1.416927 0.249317 0.202287 1.400360
2 153 15.54 1.95 0.7512674 0.16521400 381.55020124 -0.02308600 1.398966 0.232342 0.177304 1.381951
2 154 15.54 3.36 5.23 0.16521400 380.87258138 -0.02588600 1.398536 0.231844 0.176752 1.380964
2 155 15.54 4.78 0.7512674 0.16521400 380.93515568 -0.02588600 1.398474 0.232269 0.177482 1.382264
2 156 15.54 0.5340001 5.23 0.16521400 381.55179816 -0.02628600 1.398993 0.232344 0.176832 1.381558
2 157 15.68 1.45 0.2112674 0.11811400 375.82659567 -0.03348600 1.389457 0.222778 0.173349 1.379270
2 158 15.68 2.87 4.69 0.11811400 375.85715606 -0.03348600 1.389676 0.222722 0.173149 1.379494
2 159 15.68 4.28 0.2112674 0.11811400 375.92202228 -0.03348600 1.389710 0.222645 0.173502 1.379211
2 160 15.68 0.0340001 4.69 0.11811400 375.82084271 -0.03338600 1.389106 0.222715 0.172994 1.378176
2 161 15.92 2.02 8.59 0.20461400 394.86341349 -0.00598600 1.396711 0.242310 0.175222 1.375193
2 162 15.92 3.43 4.11 0.20461400 394.05708728 -0.00308600 1.396316 0.242179 0.175673 1.375861
2 163 15.92 4.85 8.59 0.20461400 394.65917562 -0.00578600 1.396021 0.242037 0.176533 1.375072
2 164 15.92 0.6040001 4.11 0.20461400 395.00773136 -0.00608600 1.396711 0.242499 0.174789 1.375458
2 165 13.99 2.56 2.48 -0.23738600 279.05282659 -0.26398600 1.311973 0.134764 0.133038 1.319183
2 166 13.99 3.98 6.96 -0.23738600 279.11326657 -0.26418600 1.311733 0.134733 0.132663 1.319507
2 167 13.99 5.39 2.48 -0.23738600 278.96086170 -0.26388600 1.311972 0.134842 0.132825 1.318544
2 168 13.99 1.1440001 6.96 -0.23738600 279.15687098 -0.26418600 1.311967 0.134945 0.132796 1.319295
2 169 14.03 1.29 7.1 -0.23738600 280.10116032 -0.26328600 1.312144 0.135347 0.132503 1.320496
2 170 14.03 2.71 2.62 -0.23738600 280.16627835 -0.26338600 1.312147 0.135152 0.132456 1.320505
2 171 14.03 4.12 7.1 -0.23738600 280.46123257 -0.26328600 1.312091 0.135177 0.132714 1.320027
2 172 14.03 5.54 2.62 -0.23738600 280.21209289 -0.26338600 1.312147 0.135305 0.132425 1.320382
2 173 14.2 2.35 2.73 -0.22638600 268.52426065 -0.24548600 1.318604 0.091156 0.096869 1.317859
2 174 14.2 3.77 7.21 -0.22638600 268.46591921 -0.24588600 1.318737 0.091519 0.096801 1.319741
2 175 14.2 5.19 2.73 -0.22638600 268.55176604 -0.24538600 1.317735 0.091104 0.096987 1.318481
2 176 14.2 0.9340001 7.21 -0.22638600 268.54198460 -0.22398600 1.318171 0.090896 0.096664 1.317892
2 177 14.3 2.25 2.79 -0.22658600 269.17304554 -0.24558600 1.311314 0.090398 0.089513 1.312347
2 178 14.3 3.67 7.27 -0.22648600 268.70529611 -0.24558600 1.309969 0.090264 0.089753 1.311721
2 179 14.3 5.09 2.79 -0.22648600 268.35896863 -0.24538600 1.310244 0.090000 0.088449 1.312108
2 180 14.3 0.8340001 7.27 -0.22658600 269.08264620 -0.24538600 1.311138 0.090385 0.088677 1.311796
2 181 14.4 2.25 2.83 -0.22778600 268.61838091 -0.24588600 1.318984 0.094848 0.099551 1.321302
2 182 14.4 3.67 7.31 -0.22768600 268.90567929 -0.23888600 1.318467 0.094756 0.099740 1.320454
2 183 14.4 5.09 2.83 -0.22768600 268.91629498 -0.24598600 1.318540 0.094247 0.099814 1.320305
2 184 14.4 0.8340001 7.31 -0.22768600 268.73917256 -0.24598600 1.318761 0.094808 0.099881 1.320246
2 185 14.57 1.83 2.62 -0.23978600 278.86606639 -0.26398600 1.313006 0.134394 0.131919 1.321435
2 186 14.57 3.25 7.1 -0.23978600 278.70223428 -0.26398600 1.313213 0.134285 0.131981 1.321096
2 187 14.57 4.66 2.62 -0.23978600 279.04101001 -0.26398600 1.313016 0.134416 0.131842 1.321265
2 188 14.57 0.4140001 7.1 -0.23978600 278.83961500 -0.26398600 1.313211 0.134642 0.132174 1.321324
2 189 14.6 1.95 2.51 -0.23978600 277.48276943 -0.26178600 1.313196 0.133823 0.132675 1.321174
2 190 14.6 3.36 6.99 -0.23978600 277.46615242 -0.26398600 1.313234 0.133945 0.131907 1.321434
2 191 14.6 4.78 2.51 -0.23978600 277.43462191 -0.26408600 1.313189 0.133906 0.132688 1.320576
2 192 14.6 0.5340001 6.99 -0.23978600 277.48544471 -0.26458600 1.313462 0.133717 0.132684 1.320584
