ITEM: TIMESTEP
0
ITEM: NUMBER OF ATOMS
299
ITEM: BOX BOUNDS pp pp pp
0.0 21.5236133
0.0 6.33478058
0.0 15.51698005
ITEM: ATOMS type id x y z SE CD SE_NF BC ZPE ZPE_NF BC_NF
1 1 14.3447782891 0.6236380307 4.6387081952 0 0 0 0 0 0 0.000000
1 2 15.5280120651 0.6285006284 2.0787259326 0 0 0 0 0 0 0.000000
1 3 14.3810455969 0.0013807032 -0.0211657746 0 0 0 0 0 0 0.000000
1 4 16.7101331854 0.6333407501 15.0113080092 0 0 0 0 0 0 0.000000
1 5 14.3409884457 1.906910859 13.9427680387 0 0 0 0 0 0 0.000000
1 6 17.8282787455 0.6025254587 12.4490594645 0 0 0 0 0 0 0.000000
1 7 15.5448318316 0.0 12.9308167094 0 0 0 0 0 0 0.000000
1 8 15.5519318407 1.9070026729 11.389238058 0 0 0 0 0 0 0.000000
1 9 19.0283023933 0.6398749043 9.8720843549 0 0 0 0 0 0 0.000000
1 10 16.7086180556 -0.0013807032 10.3658191449 0 0 0 0 0 0 0.000000
1 11 16.706928073 1.9024584306 8.8154416835 0 0 0 0 0 0 0.000000
1 12 14.3827355794 1.2649318594 9.2877017071 0 0 0 0 0 0 0.000000
1 13 14.3810455969 3.1687709932 7.7373242551 0 0 0 0 0 0 0.000000
1 14 20.2771636929 0.5700788998 7.6037865975 0 0 0 0 0 0 0.000000
1 15 17.8617511214 0.0061865986 7.7867238951 0 0 0 0 0 0 0.000000
1 16 17.8889220686 1.8887169186 6.2420520114 0 0 0 0 0 0 0.000000
1 17 15.5377318225 1.2603876171 6.7139053419 0 0 0 0 0 0 0.000000
1 18 15.5448318316 3.16739029 5.1723266797 0 0 0 0 0 0 0.000000
1 19 19.2283258706 0.0596676405 5.2447236216 0 0 0 0 0 0 0.000000
1 20 19.219865532 1.8801764627 3.6121474925 0 0 0 0 0 0 0.000000
1 21 16.7486752067 1.260479431 4.1603753613 0 0 0 0 0 0 0.000000
1 22 16.7086180556 3.1660095868 2.6073291152 0 0 0 0 0 0 0.000000
1 23 14.3795304671 2.5340495399 3.0918353908 0 0 0 0 0 0 0.000000
1 24 14.3827355794 4.4323221494 1.5292116868 0 0 0 0 0 0 0.000000
1 25 20.3696072133 -0.167851838 2.5680742991 0 0 0 0 0 0 0.000000
1 26 19.9318393178 1.80822335 1.076131282 0 0 0 0 0 0 0.000000
1 27 17.8131368352 1.2364933365 1.6213957571 0 0 0 0 0 0 0.000000
1 28 17.8617511214 3.1735768886 0.0282338655 0 0 0 0 0 0 0.000000
1 29 15.5616515981 2.5388896616 0.5074374064 0 0 0 0 0 0 0.000000
1 30 15.5377318225 4.4277779071 14.4723953731 0 0 0 0 0 0 0.000000
1 31 19.0827927032 1.3055144578 14.509859141 0 0 0 0 0 0 0.000000
1 32 19.2283258706 3.2270579305 13.0032136513 0 0 0 0 0 0 0.000000
1 33 16.7448853634 2.5437522593 13.4644352047 0 0 0 0 0 0 0.000000
1 34 16.7486752067 4.427869721 11.9188653816 0 0 0 0 0 0 0.000000
1 35 14.3447782891 3.7910283207 12.3971982156 0 0 0 0 0 0 0.000000
1 36 14.3795304671 5.7014398299 10.8503254204 0 0 0 0 0 0 0.000000
1 37 20.0268706449 1.1706009277 12.0648727673 0 0 0 0 0 0 0.000000
1 38 20.3696072133 2.999538452 10.3265643287 0 0 0 0 0 0 0.000000
1 39 17.9242450364 2.5307012272 10.9252199251 0 0 0 0 0 0 0.000000
1 40 17.8131368352 4.4038836265 9.3798857775 0 0 0 0 0 0 0.000000
1 41 15.5280120651 3.7958909184 9.8372159623 0 0 0 0 0 0 0.000000
1 42 15.5616515981 5.7062799516 8.2659274377 0 0 0 0 0 0 0.000000
1 43 19.0164700366 2.5477340362 8.3161925566 0 0 0 0 0 0 0.000000
1 44 19.0827927032 4.4729047478 6.7513691098 0 0 0 0 0 0 0.000000
1 45 16.7101331854 3.8007310401 7.2528179795 0 0 0 0 0 0 0.000000
1 46 16.7448853634 5.7111425493 5.7059451751 0 0 0 0 0 0 0.000000
1 47 14.3409884457 5.074301149 6.184278009 0 0 0 0 0 0 0.000000
1 48 20.1304001555 2.5832065731 5.7793447462 0 0 0 0 0 0 0.000000
1 49 20.0268706449 4.3379912177 4.3063827469 0 0 0 0 0 0 0.000000
1 50 17.8282787455 3.7699157487 4.6905694441 0 0 0 0 0 0 0.000000
1 51 17.9242450364 5.6980915172 3.1667298954 0 0 0 0 0 0 0.000000
1 52 15.5519318407 5.0743929629 3.6307480268 0 0 0 0 0 0 0.000000
1 53 19.0283023933 3.8072651943 2.1135943253 0 0 0 0 0 0 0.000000
1 54 19.0164700366 5.7151243262 0.5577025254 0 0 0 0 0 0 0.000000
1 55 16.706928073 5.0698487206 1.0569516632 0 0 0 0 0 0 0.000000
1 56 20.2771636929 3.7374691898 15.3622766272 0 0 0 0 0 0 0.000000
1 57 20.1304001555 5.7505968631 13.5378347758 0 0 0 0 0 0 0.000000
1 58 17.8889220686 5.0561072086 14.0005420411 0 0 0 0 0 0 0.000000
1 59 19.219865532 5.0475667527 11.3706375237 0 0 0 0 0 0 0.000000
1 60 19.9318393178 4.97561364 8.8346213024 0 0 0 0 0 0 0.000000
1 61 10.959263497 0.5841837169 12.3237986445 0 0 0 0 0 0 0.000000
1 62 12.0731936137 0.6196562538 9.7869508434 0 0 0 0 0 0 0.000000
1 63 13.165418616 0.6366890628 7.1779234748 0 0 0 0 0 0 0.000000
1 64 10.7200564392 0.167851838 7.7765790712 0 0 0 0 0 0 0.000000
1 65 11.0627930076 1.9967893623 6.0382706234 0 0 0 0 0 0 0.000000
1 66 11.8613377797 -0.0596676405 5.0999297378 0 0 0 0 0 0 0.000000
1 67 12.0068709471 1.8618758322 3.5932842589 0 0 0 0 0 0 0.000000
1 68 13.2279125311 -0.0061865986 2.5579294751 0 0 0 0 0 0 0.000000
1 69 13.2765268173 1.9308969535 0.9647675928 0 0 0 0 0 0 0.000000
1 70 11.1578243346 1.35916694 1.5100320679 0 0 0 0 0 0 0.000000
1 71 10.7200564392 3.335242128 0.0180890415 0 0 0 0 0 0 0.000000
1 72 11.8697981183 1.2872138273 14.4909959075 0 0 0 0 0 0 0.000000
1 73 11.8613377797 3.1077226495 12.8584197675 0 0 0 0 0 0 0.000000
1 74 13.2007415838 1.2786733714 11.8610913792 0 0 0 0 0 0 0.000000
1 75 13.2279125311 3.1612036914 10.3164195048 0 0 0 0 0 0 0.000000
1 76 10.8124999595 2.5973113902 10.4993568024 0 0 0 0 0 0 0.000000
1 77 12.061361257 2.5275153857 8.231059045 0 0 0 0 0 0 0.000000
1 78 11.8697981183 4.4546041173 6.7325058763 0 0 0 0 0 0 0.000000
1 79 13.261384907 2.5648648313 5.6540839262 0 0 0 0 0 0 0.000000
1 80 13.2007415838 4.4460636614 4.1026013589 0 0 0 0 0 0 0.000000
1 81 10.959263497 3.7515740069 4.5653086241 0 0 0 0 0 0 0.000000
1 82 10.8124999595 5.7647016802 2.7408667728 0 0 0 0 0 0 0.000000
1 83 12.0731936137 3.7870465438 2.0284608137 0 0 0 0 0 0 0.000000
1 84 12.061361257 5.6949056757 0.4725690138 0 0 0 0 0 0 0.000000
1 85 13.165418616 3.8040793528 14.9364135045 0 0 0 0 0 0 0.000000
1 86 13.261384907 5.7322551213 13.4125739558 0 0 0 0 0 0 0.000000
1 87 11.0627930076 5.1641796523 13.796760653 0 0 0 0 0 0 0.000000
1 88 12.0068709471 5.0292661222 11.3517742901 0 0 0 0 0 0 0.000000
1 89 13.2765268173 5.0982872435 8.7232576132 0 0 0 0 0 0 0.000000
1 90 0.3960176846 1.80822335 1.5100320679 0 0 0 0 0 0 0.000000
1 91 -0.0417502108 -0.167851838 0.0180890415 0 0 0 0 0 0 0.000000
1 92 0.0506933095 0.5700788998 10.4993568024 0 0 0 0 0 0 0.000000
1 93 1.2995546178 0.6398749043 8.231059045 0 0 0 0 0 0 0.000000
1 94 -0.0417502108 2.999538452 7.7765790712 0 0 0 0 0 0 0.000000
1 95 2.499578257 0.6025254587 5.6540839262 0 0 0 0 0 0 0.000000
1 96 1.0995311404 3.2270579305 5.0999297378 0 0 0 0 0 0 0.000000
1 97 0.197456847 5.7505968631 4.5653086241 0 0 0 0 0 0 0.000000
1 98 3.6177238171 0.6333407501 3.0918353908 0 0 0 0 0 0 0.000000
1 99 1.2450643079 1.3055144578 3.5932842589 0 0 0 0 0 0 0.000000
1 100 2.4661058811 3.1735768886 2.5579294751 0 0 0 0 0 0 0.000000
1 101 0.0506933095 3.7374691898 2.7408667728 0 0 0 0 0 0 0.000000
1 102 1.3113869744 5.7151243262 2.0284608137 0 0 0 0 0 0 0.000000
1 103 4.7998449481 0.6285006284 0.5074374064 0 0 0 0 0 0 0.000000
1 104 2.5147201673 1.2364933365 0.9647675928 0 0 0 0 0 0 0.000000
1 105 3.6192389469 3.1660095868 -0.0211657746 0 0 0 0 0 0 0.000000
1 106 1.2995546178 3.8072651943 0.4725690138 0 0 0 0 0 0 0.000000
1 107 1.1079914791 1.8801764627 14.4909959075 0 0 0 0 0 0 0.000000
1 108 0.3009863576 4.3379912177 13.796760653 0 0 0 0 0 0 0.000000
1 109 1.0995311404 0.0596676405 12.8584197675 0 0 0 0 0 0 0.000000
1 110 2.4389349338 1.8887169186 11.8610913792 0 0 0 0 0 0 0.000000
1 111 0.197456847 2.5832065731 12.3237986445 0 0 0 0 0 0 0.000000
1 112 1.2450643079 4.4729047478 11.3517742901 0 0 0 0 0 0 0.000000
1 113 2.4661058811 0.0061865986 10.3164195048 0 0 0 0 0 0 0.000000
1 114 3.6209289294 1.9024584306 9.2877017071 0 0 0 0 0 0 0.000000
1 115 1.3113869744 2.5477340362 9.7869508434 0 0 0 0 0 0 0.000000
1 116 2.5147201673 4.4038836265 8.7232576132 0 0 0 0 0 0 0.000000
1 117 0.3960176846 4.97561364 9.2685220882 0 0 0 0 0 0 0.000000
1 118 3.6192389469 -0.0013807032 7.7373242551 0 0 0 0 0 0 0.000000
1 119 4.7759251725 1.9070026729 6.7139053419 0 0 0 0 0 0 0.000000
1 120 2.403611966 2.5307012272 7.1779234748 0 0 0 0 0 0 0.000000
1 121 3.5791817957 4.427869721 6.184278009 0 0 0 0 0 0 0.000000
1 122 1.1079914791 5.0475667527 6.7325058763 0 0 0 0 0 0 0.000000
1 123 4.7830251816 0.0 5.1723266797 0 0 0 0 0 0 0.000000
1 124 5.9868685567 1.906910859 4.1603753613 0 0 0 0 0 0 0.000000
1 125 3.5829716391 2.5437522593 4.6387081952 0 0 0 0 0 0 0.000000
1 126 4.7901251907 4.4277779071 3.6307480268 0 0 0 0 0 0 0.000000
1 127 2.4389349338 5.0561072086 4.1026013589 0 0 0 0 0 0 0.000000
1 128 5.9468114056 0.0013807032 2.6073291152 0 0 0 0 0 0 0.000000
1 129 4.7662054151 2.5388896616 2.0787259326 0 0 0 0 0 0 0.000000
1 130 5.945121423 4.4323221494 1.0569516632 0 0 0 0 0 0 0.000000
1 131 3.6209289294 5.0698487206 1.5292116868 0 0 0 0 0 0 0.000000
1 132 2.403611966 5.6980915172 14.9364135045 0 0 0 0 0 0 0.000000
1 133 5.9830787134 0.6236380307 13.4644352047 0 0 0 0 0 0 0.000000
1 134 3.5791817957 1.260479431 13.9427680387 0 0 0 0 0 0 0.000000
1 135 4.7830251816 3.16739029 12.9308167094 0 0 0 0 0 0 0.000000
1 136 2.499578257 3.7699157487 13.4125739558 0 0 0 0 0 0 0.000000
1 137 3.5829716391 5.7111425493 12.3971982156 0 0 0 0 0 0 0.000000
1 138 4.7901251907 1.2603876171 11.389238058 0 0 0 0 0 0 0.000000
1 139 5.9468114056 3.1687709932 10.3658191449 0 0 0 0 0 0 0.000000
1 140 3.6177238171 3.8007310401 10.8503254204 0 0 0 0 0 0 0.000000
1 141 4.7662054151 5.7062799516 9.8372159623 0 0 0 0 0 0 0.000000
1 142 5.945121423 1.2649318594 8.8154416835 0 0 0 0 0 0 0.000000
1 143 4.7998449481 3.7958909184 8.2659274377 0 0 0 0 0 0 0.000000
1 144 5.9483265354 5.7014398299 7.2528179795 0 0 0 0 0 0 0.000000
1 145 5.9830787134 3.7910283207 5.7059451751 0 0 0 0 0 0 0.000000
1 146 5.9483265354 2.5340495399 15.0113080092 0 0 0 0 0 0 0.000000
1 147 4.7759251725 5.0743929629 14.4723953731 0 0 0 0 0 0 0.000000
1 148 5.9868685567 5.074301149 11.9188653816 0 0 0 0 0 0 0.000000
1 149 7.0513301852 1.9308969535 1.6213957571 0 0 0 0 0 0 0.000000
1 150 7.0999444714 -0.0061865986 0.0282338655 0 0 0 0 0 0 0.000000
1 151 7.1624383864 0.6366890628 10.9252199251 0 0 0 0 0 0 0.000000
1 152 8.2546633866 0.6196562538 8.3161925566 0 0 0 0 0 0 0.000000
1 153 7.0999444714 3.1612036914 7.7867238951 0 0 0 0 0 0 0.000000
1 154 9.3685935162 0.5841837169 5.7793447462 0 0 0 0 0 0 0.000000
1 155 7.1271154186 1.2786733714 6.2420520114 0 0 0 0 0 0 0.000000
1 156 8.4665192206 3.1077226495 5.2447236216 0 0 0 0 0 0 0.000000
1 157 7.0664720955 5.7322551213 4.6905694441 0 0 0 0 0 0 0.000000
1 158 8.458058882 1.2872138273 3.6121474925 0 0 0 0 0 0 0.000000
1 159 9.607800574 3.335242128 2.5680742991 0 0 0 0 0 0 0.000000
1 160 7.1624383864 3.8040793528 3.1667298954 0 0 0 0 0 0 0.000000
1 161 8.2664957433 5.6949056757 2.1135943253 0 0 0 0 0 0 0.000000
1 162 9.1700326786 1.35916694 1.076131282 0 0 0 0 0 0 0.000000
1 163 8.2546633866 3.7870465438 0.5577025254 0 0 0 0 0 0 0.000000
1 164 8.3209860532 1.8618758322 14.509859141 0 0 0 0 0 0 0.000000
1 165 7.1271154186 4.4460636614 14.0005420411 0 0 0 0 0 0 0.000000
1 166 8.4665192206 -0.0596676405 13.0032136513 0 0 0 0 0 0 0.000000
1 167 9.2650640056 1.9967893623 12.0648727673 0 0 0 0 0 0 0.000000
1 168 7.0664720955 2.5648648313 12.4490594645 0 0 0 0 0 0 0.000000
1 169 8.458058882 4.4546041173 11.3706375237 0 0 0 0 0 0 0.000000
1 170 9.607800574 0.167851838 10.3265643287 0 0 0 0 0 0 0.000000
1 171 8.2664957433 2.5275153857 9.8720843549 0 0 0 0 0 0 0.000000
1 172 9.1700326786 4.52655723 8.8346213024 0 0 0 0 0 0 0.000000
1 173 7.0513301852 5.0982872435 9.3798857775 0 0 0 0 0 0 0.000000
1 174 9.5153570537 2.5973113902 7.6037865975 0 0 0 0 0 0 0.000000
1 175 8.3209860532 5.0292661222 6.7513691098 0 0 0 0 0 0 0.000000
1 176 9.2650640056 5.1641796523 4.3063827469 0 0 0 0 0 0 0.000000
1 177 9.5153570537 5.7647016802 15.3622766272 0 0 0 0 0 0 0.000000
1 178 9.3685935162 3.7515740069 13.5378347758 0 0 0 0 0 0 0.000000
1 179 11.1578243346 4.52655723 9.2685220882 0 0 0 0 0 0 0.000000
1 180 0.3009863576 1.1706009277 6.0382706234 0 0 0 0 0 0 0.000000
2 181 6.95 3.84 11.45 0.32801400 606.72743639 -0.14068600 1.391097 0.251622 0.128125 1.313125
2 182 6.95 0.67521942 3.69 0.32801400 607.10251222 -0.14058600 1.391628 0.251573 0.128471 1.312667
2 183 7.27 0.94 12.52 0.30211400 612.77392957 0.07171400 1.393178 0.246762 0.182031 1.381853
2 184 7.27 4.11 4.76 0.30211400 612.22701387 0.08261400 1.393174 0.246711 0.177240 1.375513
2 185 7.48 1.21 13.26 0.32781400 616.82545526 0.05181400 1.387160 0.245656 0.169311 1.374602
2 186 7.48 4.38 5.5 0.32781400 616.77977244 0.05241400 1.387832 0.245531 0.167555 1.371761
2 187 7.49 1.88 4.77 0.31581400 602.03924566 -0.08218600 1.397991 0.251657 0.138182 1.317803
2 188 7.49 5.05 12.53 0.31581400 601.86818914 -0.08048600 1.397587 0.251611 0.137782 1.317814
2 189 7.49 5.67 11.84 0.29451400 597.12094200 0.05081400 1.416512 0.255209 0.199668 1.395393
2 190 8.09 3.11 2.02 0.34871400 625.32730771 0.01221400 1.382761 0.242941 0.150158 1.380265
2 191 8.13 2.47 6.72 0.28521400 591.50557960 -0.06728600 1.386131 0.239073 0.130071 1.346101
2 192 8.13 5.64 14.47 0.28521400 590.33474421 -0.06638600 1.386140 0.239093 0.130511 1.347366
2 193 8.14 2.58 2.65 0.28511400 601.81256992 0.01251400 1.387933 0.238008 0.168174 1.375479
2 194 8.14 5.75 10.41 0.28511400 601.57726229 0.01221400 1.387933 0.238013 0.168248 1.378004
2 195 8.44 2.91 3.62 0.25051400 556.49000985 -0.02128600 1.387089 0.258364 0.208355 1.403230
2 196 8.44 6.08 11.38 0.25051400 557.58562779 -0.02128600 1.387089 0.258394 0.203857 1.403646
2 197 8.59 1.42 6.94 0.33111400 609.23685902 -0.06858600 1.377509 0.236807 0.127367 1.334278
2 198 8.59 4.59 14.69 0.33111400 609.03996631 -0.06888600 1.377083 0.237180 0.128495 1.338543
2 199 8.63 1.92 6.38 0.27991400 590.72310507 -0.06888600 1.386397 0.233257 0.126650 1.337615
2 200 8.63 5.09 14.14 0.27991400 590.22413693 -0.04758600 1.386392 0.233257 0.129475 1.342729
2 201 9.34 3.15 10.92 0.22351400 524.40464947 -0.10588600 1.373271 0.235253 0.181546 1.329352
2 202 9.34 6.32 3.16 0.22351400 524.18210873 -0.10678600 1.373274 0.235230 0.179789 1.328201
2 203 9.48 3.65 10.26 0.09051400 487.28514802 -0.12718600 1.335214 0.183348 0.150452 1.316175
2 204 9.48 0.48521942 2.5 0.09051400 486.73167028 -0.13408600 1.335477 0.183485 0.150288 1.315804
2 205 9.76 2.99 9.23 0.14371400 506.27633515 -0.13418600 1.342750 0.199979 0.127691 1.299712
2 206 9.76 6.15 1.46301995 0.14371400 505.62513063 -0.13418600 1.343393 0.199846 0.128521 1.298516
2 207 9.86 1.61 2.64 -0.02538600 431.18820933 -0.12428600 1.285198 0.131069 0.146562 1.298478
2 208 9.86 4.78 10.4 -0.02538600 430.95268209 -0.12378600 1.285465 0.130725 0.145845 1.299295
2 209 10.16 1.5 9.05 -0.09898600 411.68333977 -0.15518600 1.305013 0.136420 0.124261 1.300322
2 210 10.16 3.17 9.05 0.17611400 517.48618689 -0.17578600 1.336128 0.189814 0.112627 1.285739
2 211 10.16 4.66 1.29301995 -0.09898600 412.38734945 -0.18348600 1.303748 0.135500 0.127686 1.305222
2 212 10.16 0.00521942 1.29301995 0.17611400 517.91311765 -0.28588600 1.336173 0.189922 0.120925 1.292833
2 213 10.45 1.61 15.45 -0.02548600 427.37845730 -0.15338600 1.284026 0.131114 0.145073 1.298962
2 214 10.45 4.78 7.69 -0.02548600 427.24246002 -0.15368600 1.283339 0.131059 0.145112 1.299668
2 215 10.56 2.99 8.87 0.14371400 505.73868216 -0.13398600 1.340374 0.200068 0.124675 1.296574
2 216 10.56 6.15 1.11301995 0.14371400 504.63340516 -0.13448600 1.339374 0.199986 0.126624 1.294751
2 217 10.83 3.65 7.83 0.09051400 485.38591099 -0.13328600 1.336537 0.184624 0.150530 1.317713
2 218 10.83 0.48521942 0.07301995 0.09051400 485.73817196 -0.12668600 1.336902 0.184403 0.150488 1.314895
2 219 10.98 6.32 14.93 0.22351400 521.34169208 -0.10758600 1.362418 0.235390 0.178540 1.329069
2 220 11.69 1.92 11.71 0.27991400 590.39633488 -0.06808600 1.395897 0.233473 0.126858 1.339928
2 221 11.69 5.09 3.96 0.27991400 589.70591703 -0.06828600 1.395848 0.233689 0.129106 1.336226
2 222 11.73 1.42 11.16 0.33111400 608.62646858 -0.06828600 1.378349 0.237038 0.126718 1.338007
2 223 11.73 4.59 3.4 0.33111400 608.30971166 -0.06868600 1.378585 0.236908 0.127177 1.336389
2 224 11.88 2.91 14.47 0.25051400 557.36429464 -0.02168600 1.406754 0.258399 0.205951 1.378801
2 225 11.88 6.08 6.71 0.25051400 558.00224159 -0.02168600 1.406751 0.258384 0.203337 1.377143
2 226 12.18 2.47 11.38 0.28521400 589.44616601 -0.06838600 1.388470 0.239307 0.128556 1.337299
2 227 12.18 2.58 15.44 0.28511400 600.18020154 0.01201400 1.397466 0.237932 0.149605 1.378448
2 228 12.18 5.64 3.62 0.28521400 590.01677289 -0.06828600 1.388705 0.239193 0.129367 1.335207
2 229 12.18 5.75 7.68 0.28511400 600.60771158 0.01251400 1.397491 0.237752 0.161836 1.376614
2 230 12.83 1.21 4.83 0.32791400 617.11663524 0.05141400 1.386426 0.245231 0.173890 1.375499
2 231 12.83 1.88 13.32 0.31581400 602.55846175 -0.08248600 1.403229 0.251359 0.139705 1.319150
2 232 12.83 2.5 14.01 0.29451400 596.85704962 0.05051400 1.409685 0.255347 0.200673 1.392956
2 233 12.83 4.38 12.59 0.32781400 617.07897574 0.05061400 1.386432 0.245308 0.174589 1.377023
2 234 12.83 5.05 5.56 0.31581400 603.06855447 -0.08278600 1.403230 0.251359 0.139335 1.317723
2 235 12.83 5.67 6.25 0.29451400 597.49214891 0.05051400 1.408709 0.255300 0.200299 1.395089
2 236 9.62 1.55 9.11 -0.09898600 438.75769149 -0.20348600 1.308351 0.137171 0.126848 1.303056
2 237 9.62 4.71 1.35301995 -0.09898600 438.94821828 -0.20388600 1.308196 0.137873 0.127132 1.304104
2 238 9.75 1.11 13.61 -0.11358600 377.44295016 -0.23278600 1.281951 0.156276 0.154327 1.296392
2 239 9.75 4.28 5.85 -0.11358600 377.64775902 -0.23268600 1.281474 0.156508 0.153850 1.295547
2 240 9.76 2.44 4.14 -0.14928600 394.93302784 -0.23988600 1.292113 0.120529 0.129341 1.307033
2 241 9.76 5.6 11.9 -0.14938600 394.47512913 -0.23848600 1.291571 0.120848 0.128088 1.305596
2 242 9.8 1.66 9.21 -0.09898600 421.82550463 -0.20358600 1.308108 0.137742 0.126579 1.300256
2 243 9.8 4.83 1.45301995 -0.09898600 422.21867379 -0.20368600 1.307647 0.137699 0.127119 1.304067
2 244 9.82 1.98 4.65 -0.14928600 388.98663233 -0.18568600 1.292654 0.121833 0.126109 1.305405
2 245 9.82 5.15 12.41 -0.14938600 389.14657569 -0.18568600 1.293242 0.121525 0.126320 1.305933
2 246 9.85 1.33 8.91 -0.09898600 432.65095550 -0.16998600 1.307488 0.138273 0.125275 1.296915
2 247 9.85 4.5 1.15301995 -0.09898600 432.70948376 -0.15538600 1.307673 0.136917 0.125501 1.302900
2 248 9.87 4.08 10.38 -0.02548600 429.77798805 -0.15498600 1.281260 0.130390 0.145049 1.296411
2 249 9.87 0.91521942 2.62 -0.02548600 429.77798250 -0.15498600 1.281487 0.130360 0.144960 1.295637
2 250 9.93 2.13 4.49 -0.14928600 376.27653731 -0.18588600 1.291563 0.119650 0.126827 1.306136
2 251 9.93 5.29 12.25 -0.14928600 375.69214741 -0.18608600 1.290765 0.120603 0.127419 1.304049
2 252 9.97 4.01 6.28 -0.13898600 346.33940544 -0.25758600 1.298313 0.148317 0.141454 1.297812
2 253 9.97 0.84521942 14.03 -0.13898600 345.88651265 -0.25748600 1.298835 0.148124 0.141132 1.298825
2 254 10.02 3.48 6.1 -0.13888600 403.12324005 -0.25668600 1.300263 0.149346 0.140917 1.300227
2 255 10.02 0.31521942 13.86 -0.13888600 403.21546852 -0.25638600 1.300380 0.149458 0.140781 1.298143
2 256 10.03 4.35 7.16 -0.02548600 353.82696435 -0.15188600 1.284792 0.130685 0.145886 1.302766
2 257 10.03 1.18521942 14.92 -0.02538600 354.15411238 -0.13088600 1.282643 0.129777 0.142807 1.298778
2 258 10.06 3.65 11.82 -0.13888600 380.97949750 -0.24768600 1.297443 0.148103 0.141361 1.301636
2 259 10.06 0.47521942 4.06 -0.13888600 382.02310053 -0.24738600 1.297432 0.148141 0.141490 1.302337
2 260 10.08 1.54 13.76 -0.11358600 345.04069457 -0.23268600 1.280497 0.155407 0.153204 1.296283
2 261 10.08 4.71 6.0 -0.11358600 345.00452585 -0.23218600 1.281907 0.156291 0.152938 1.297642
2 262 10.11 1.65 15.0 -0.02538600 362.53544762 -0.13618600 1.281384 0.129644 0.145376 1.301431
2 263 10.11 4.81 7.24 -0.02538600 361.81053171 -0.13678600 1.283032 0.130031 0.145220 1.299570
2 264 10.14 2.12 3.95 -0.14928600 352.33393050 -0.20268600 1.292586 0.119748 0.127538 1.302205
2 265 10.14 5.29 11.71 -0.14928600 352.83735078 -0.20238600 1.292502 0.120549 0.127485 1.303359
2 266 10.15 1.97 13.81 -0.14938600 352.44510044 -0.18588600 1.293701 0.120864 0.126651 1.306848
2 267 10.15 5.14 6.05 -0.14938600 352.52968027 -0.18558600 1.293717 0.120900 0.125072 1.306294
2 268 10.17 1.97 4.28 -0.14938600 352.13463788 -0.18588600 1.293219 0.120915 0.127452 1.305263
2 269 10.17 5.14 12.04 -0.14938600 352.59813887 -0.18578600 1.293024 0.120894 0.125164 1.305253
2 270 10.18 2.12 14.14 -0.14928600 353.26751000 -0.20088600 1.294077 0.120490 0.127230 1.309824
2 271 10.18 5.29 6.38 -0.14938600 353.33716303 -0.20068600 1.294290 0.120267 0.127545 1.309850
2 272 10.21 1.65 3.09 -0.02538600 363.73663874 -0.15388600 1.280419 0.129706 0.145615 1.295819
2 273 10.21 4.81 10.85 -0.02538600 362.92929097 -0.15468600 1.280309 0.129725 0.145146 1.294572
2 274 10.24 1.54 4.33 -0.11358600 343.29139410 -0.23028600 1.279672 0.156249 0.154551 1.299963
2 275 10.24 4.71 12.09 -0.11358600 343.77568823 -0.23138600 1.280038 0.155490 0.154136 1.299964
2 276 10.26 3.65 6.27 -0.13888600 380.98447675 -0.25658600 1.300767 0.148549 0.140317 1.301512
2 277 10.26 0.47521942 14.03 -0.13888600 381.66095133 -0.25658600 1.299918 0.148525 0.140567 1.301358
2 278 10.29 4.35 10.93 -0.02548600 354.96733624 -0.15338600 1.281834 0.130419 0.145718 1.298546
2 279 10.29 1.18521942 3.17 -0.02548600 355.31569062 -0.15348600 1.282558 0.130373 0.146125 1.298003
2 280 10.3 3.48 12.0 -0.13888600 403.74713835 -0.24738600 1.296568 0.149270 0.142074 1.302097
2 281 10.3 0.31521942 4.24 -0.13888600 402.80981569 -0.24798600 1.296415 0.149364 0.141596 1.304277
2 282 10.39 2.13 13.6 -0.14928600 377.11935488 -0.18578600 1.294483 0.120330 0.126448 1.309130
2 283 10.39 3.98 11.85 -0.13888600 349.65571029 -0.25758600 1.299589 0.147787 0.141286 1.301199
2 284 10.39 5.29 5.85 -0.14928600 377.36198585 -0.18578600 1.293593 0.120462 0.126538 1.309065
2 285 10.39 0.81521942 4.09 -0.13888600 349.44405868 -0.25758600 1.300253 0.147743 0.141376 1.299959
2 286 10.45 4.08 7.71 -0.02538600 427.28218663 -0.15348600 1.283668 0.131117 0.145574 1.302007
2 287 10.45 0.91521942 15.47 -0.02548600 427.92117220 -0.13658600 1.283228 0.130802 0.145142 1.302745
2 288 10.47 1.33 9.18 -0.09898600 431.32146522 -0.17008600 1.322913 0.137985 0.125636 1.307664
2 289 10.47 4.5 1.42 -0.09898600 431.65245139 -0.15478600 1.325290 0.138362 0.125597 1.315431
2 290 10.5 1.98 13.44 -0.14928600 388.26524357 -0.18528600 1.292388 0.122355 0.126826 1.308158
2 291 10.5 5.15 5.69 -0.14928600 388.32691665 -0.18558600 1.293829 0.122399 0.125993 1.308545
2 292 10.52 1.66 8.89 -0.09898600 421.72863313 -0.17128600 1.318370 0.137733 0.124347 1.310170
2 293 10.52 4.83 1.12301995 -0.09898600 421.61926344 -0.17108600 1.319191 0.137723 0.124087 1.307691
2 294 10.56 2.44 13.95 -0.14928600 394.97680589 -0.23778600 1.295060 0.120601 0.128218 1.312369
2 295 10.56 5.6 6.19 -0.14938600 394.51762075 -0.16528600 1.294302 0.121685 0.107954 1.296750
2 296 10.57 1.11 4.49 -0.11358600 376.71873904 -0.23288600 1.280294 0.156440 0.153980 1.297318
2 297 10.57 4.28 12.24 -0.11358600 375.31824468 -0.23298600 1.280293 0.156359 0.153990 1.298237
2 298 10.7 1.55 8.99 -0.09898600 437.63799015 -0.20468600 1.317700 0.137398 0.127765 1.311430
2 299 10.7 4.71 1.23 -0.09898600 437.87865149 -0.16928600 1.322009 0.137987 0.124311 1.308913
