ITEM: TIMESTEP
0
ITEM: NUMBER OF ATOMS
297
ITEM: BOX BOUNDS pp pp pp
0.0 21.21821332
0.0 6.33478058
0.0 15.51698005
ITEM: ATOMS type id x y z SE CD SE_NF BC ZPE ZPE_NF BC_NF
1 1 14.1063865492 0.5680102123 4.4638953549 0 0 0 0 0 0 0.000000
1 2 15.3150745255 0.5612904901 1.8681584283 0 0 0 0 0 0 0.000000
1 3 14.1761189042 6.2723053981 15.2920677601 0 0 0 0 0 0 0.000000
1 4 16.4804129244 0.5512274051 14.7735999958 0 0 0 0 0 0 0.000000
1 5 14.1106390136 1.8385209937 13.7469819793 0 0 0 0 0 0 0.000000
1 6 17.5280340085 0.4944754158 12.1871130773 0 0 0 0 0 0 0.000000
1 7 15.2891810124 6.2542012993 12.6982189446 0 0 0 0 0 0 0.000000
1 8 15.3131385964 1.8187006361 11.1473687123 0 0 0 0 0 0 0.000000
1 9 18.932285853 0.5284222664 9.5593803114 0 0 0 0 0 0 0.000000
1 10 16.4931248031 6.2352597185 10.0992048071 0 0 0 0 0 0 0.000000
1 11 16.4923383813 1.8077788062 8.5702695725 0 0 0 0 0 0 0.000000
1 12 14.1369391492 1.1839489718 9.0797557625 0 0 0 0 0 0 0.000000
1 13 14.1337092104 3.120072031 7.5622547153 0 0 0 0 0 0 0.000000
1 14 20.1971911139 0.4440854615 7.0949573326 0 0 0 0 0 0 0.000000
1 15 17.6759017518 6.2392845778 7.5260521872 0 0 0 0 0 0 0.000000
1 16 17.67975588 1.8267353458 6.0069743898 0 0 0 0 0 0 0.000000
1 17 15.2964457074 1.1976160637 6.5219643059 0 0 0 0 0 0 0.000000
1 18 15.2812935495 3.1041909569 4.9819510553 0 0 0 0 0 0 0.000000
1 19 18.7736815135 6.3190781722 4.9894238475 0 0 0 0 0 0 0.000000
1 20 18.9510012563 1.8227511871 3.3683383939 0 0 0 0 0 0 0.000000
1 21 16.4915475331 1.1951298047 3.9405101793 0 0 0 0 0 0 0.000000
1 22 16.5012282821 3.0917573057 2.3681474397 0 0 0 0 0 0 0.000000
1 23 14.1699405791 2.4752783008 2.9051969801 0 0 0 0 0 0 0.000000
1 24 14.1799353114 4.3715600834 1.3305537709 0 0 0 0 0 0 0.000000
1 25 20.0676058151 6.1228145717 2.4839493621 0 0 0 0 0 0 0.000000
1 26 19.7121323164 1.7454529864 0.718430561 0 0 0 0 0 0 0.000000
1 27 17.6060521688 1.1659863239 1.3666679889 0 0 0 0 0 0 0.000000
1 28 17.6187509191 3.0849941972 15.2968993431 0 0 0 0 0 0 0.000000
1 29 15.348182388 2.4673307566 0.2909979907 0 0 0 0 0 0 0.000000
1 30 15.3035939235 4.3616472031 14.252624465 0 0 0 0 0 0 0.000000
1 31 18.8399182591 1.1678778636 14.2111835983 0 0 0 0 0 0 0.000000
1 32 18.7651421984 3.1213611676 12.7218695845 0 0 0 0 0 0 0.000000
1 33 16.4550985543 2.4561572056 13.225133123 0 0 0 0 0 0 0.000000
1 34 16.4829237943 4.3447055511 11.6643260202 0 0 0 0 0 0 0.000000
1 35 14.1053411663 3.7243232584 12.1906454213 0 0 0 0 0 0 0.000000
1 36 14.1121312318 5.6134866521 10.6248549564 0 0 0 0 0 0 0.000000
1 37 19.657461684 1.1160495822 11.8536146076 0 0 0 0 0 0 0.000000
1 38 20.0618208183 2.917952697 10.2173992362 0 0 0 0 0 0 0.000000
1 39 17.6530067811 2.4247529878 10.6299634619 0 0 0 0 0 0 0.000000
1 40 17.6435075402 4.3225398493 9.0992198794 0 0 0 0 0 0 0.000000
1 41 15.3067148274 3.7220398291 9.6072314671 0 0 0 0 0 0 0.000000
1 42 15.2888423718 5.6216204298 8.0587612371 0 0 0 0 0 0 0.000000
1 43 18.8286916911 2.4181251729 8.0467167885 0 0 0 0 0 0 0.000000
1 44 18.9248072041 4.3250492745 6.4776709951 0 0 0 0 0 0 0.000000
1 45 16.4821814148 3.7209153502 7.0320422304 0 0 0 0 0 0 0.000000
1 46 16.4499958184 5.6323611244 5.4993447066 0 0 0 0 0 0 0.000000
1 47 14.0596043408 5.0164427673 6.030657803 0 0 0 0 0 0 0.000000
1 48 20.1550069047 2.2668129446 5.4774961736 0 0 0 0 0 0 0.000000
1 49 19.6016220824 4.2916625469 4.1406032506 0 0 0 0 0 0 0.000000
1 50 17.5066868458 3.6741669745 4.467011698 0 0 0 0 0 0 0.000000
1 51 17.6386675783 5.6124798786 2.9020218747 0 0 0 0 0 0 0.000000
1 52 15.3093166164 5.0021102179 3.4233509651 0 0 0 0 0 0 0.000000
1 53 18.9102696325 3.7352433402 1.8402180174 0 0 0 0 0 0 0.000000
1 54 18.8003464216 5.6130116799 0.2987375533 0 0 0 0 0 0 0.000000
1 55 16.4903068089 4.9907786658 0.8201050509 0 0 0 0 0 0 0.000000
1 56 19.9079576607 3.6217214368 14.8454921793 0 0 0 0 0 0 0.000000
1 57 19.9689178517 5.5532944007 13.2407049829 0 0 0 0 0 0 0.000000
1 58 17.6421459078 4.9843633239 13.7445541233 0 0 0 0 0 0 0.000000
1 59 18.9555536345 4.9652928163 11.1205875504 0 0 0 0 0 0 0.000000
1 60 19.8262253151 4.8625525293 8.4938606017 0 0 0 0 0 0 0.000000
1 61 10.8461539287 0.5056977554 12.217518514 0 0 0 0 0 0 0.000000
1 62 11.8343739316 0.575492661 9.6521829351 0 0 0 0 0 0 0.000000
1 63 12.9210420316 0.5901462517 7.0124217269 0 0 0 0 0 0 0.000000
1 64 10.5688463709 0.2641463554 7.6927458113 0 0 0 0 0 0 0.000000
1 65 10.7939956476 2.0369238147 5.8567319145 0 0 0 0 0 0 0.000000
1 66 11.6276000279 6.2756362434 4.9493664557 0 0 0 0 0 0 0.000000
1 67 11.8122552891 1.8313661701 3.4456030713 0 0 0 0 0 0 0.000000
1 68 13.025212364 6.2748571434 2.3840524901 0 0 0 0 0 0 0.000000
1 69 13.1036504581 1.8832322613 0.7885346067 0 0 0 0 0 0 0.000000
1 70 11.0259780079 1.2761964926 1.3349300057 0 0 0 0 0 0 0.000000
1 71 10.5435507868 3.2639932574 15.4904617855 0 0 0 0 0 0 0.000000
1 72 11.6767334388 1.2504467061 14.3394587617 0 0 0 0 0 0 0.000000
1 73 11.6466283233 3.0967425382 12.7183506941 0 0 0 0 0 0 0.000000
1 74 12.9997365903 1.2221142847 11.6755310245 0 0 0 0 0 0 0.000000
1 75 13.0165206777 3.0975792202 10.1432031945 0 0 0 0 0 0 0.000000
1 76 10.6625259021 2.601770379 10.3479916981 0 0 0 0 0 0 0.000000
1 77 11.8218615095 2.5532311642 8.0958522274 0 0 0 0 0 0 0.000000
1 78 11.4405182872 4.4737116503 6.6279339749 0 0 0 0 0 0 0.000000
1 79 13.022493551 2.5264015232 5.50280473 0 0 0 0 0 0 0.000000
1 80 12.9911047358 4.409679843 3.9422230254 0 0 0 0 0 0 0.000000
1 81 10.8006422684 3.7711144137 4.4167926064 0 0 0 0 0 0 0.000000
1 82 10.6265087484 5.748052648 2.6488068245 0 0 0 0 0 0 0.000000
1 83 11.8952989558 3.7618567174 1.8788006504 0 0 0 0 0 0 0.000000
1 84 11.9051005512 5.6343385102 0.291743992 0 0 0 0 0 0 0.000000
1 85 12.9575714971 3.745844556 14.7574973932 0 0 0 0 0 0 0.000000
1 86 13.0298940329 5.6483778387 13.2003654535 0 0 0 0 0 0 0.000000
1 87 10.8363500986 5.160681746 13.691509915 0 0 0 0 0 0 0.000000
1 88 11.6439160194 4.9144829673 11.0798647616 0 0 0 0 0 0 0.000000
1 89 12.8317182816 4.9961937701 8.5820893296 0 0 0 0 0 0 0.000000
1 90 0.2550949057 1.9468486529 1.8153764969 0 0 0 0 0 0 0.000000
1 91 21.1744642839 6.2535257656 0.1017581516 0 0 0 0 0 0 0.000000
1 92 0.2866603151 0.60792864 10.8783774663 0 0 0 0 0 0 0.000000
1 93 1.126553613 0.7514896136 8.5047243493 0 0 0 0 0 0 0.000000
1 94 21.2047388493 2.8369573964 7.7721292131 0 0 0 0 0 0 0.000000
1 95 2.1520621861 0.7424067481 6.0004576882 0 0 0 0 0 0 0.000000
1 96 1.1393402431 3.2998673375 5.431305918 0 0 0 0 0 0 0.000000
1 97 -0.0035786323 5.8328149139 4.9029811783 0 0 0 0 0 0 0.000000
1 98 3.4986780555 0.7164030112 3.3585471484 0 0 0 0 0 0 0.000000
1 99 1.1078854212 1.3762719082 3.8897448651 0 0 0 0 0 0 0.000000
1 100 2.4416051895 3.2418054385 2.831432222 0 0 0 0 0 0 0.000000
1 101 0.2179475323 3.7770123644 3.200388894 0 0 0 0 0 0 0.000000
1 102 1.2489481378 5.8064007251 2.2916141216 0 0 0 0 0 0 0.000000
1 103 4.7011092878 0.7034648112 0.7312062154 0 0 0 0 0 0 0.000000
1 104 2.398707063 1.3330778714 1.2204790757 0 0 0 0 0 0 0.000000
1 105 3.5374885285 3.2413115197 0.2266416032 0 0 0 0 0 0 0.000000
1 106 1.1828006754 3.9064738017 0.796990156 0 0 0 0 0 0 0.000000
1 107 1.0703170412 2.0237807946 14.726064533 0 0 0 0 0 0 0.000000
1 108 0.5746387116 4.5058233657 14.1177223345 0 0 0 0 0 0 0.000000
1 109 1.1486054565 0.2102680884 13.1031833122 0 0 0 0 0 0 0.000000
1 110 2.4071687063 1.9916589831 12.0823971768 0 0 0 0 0 0 0.000000
1 111 0.021676689 2.7056074627 12.5843096489 0 0 0 0 0 0 0.000000
1 112 1.2693474461 4.5488408063 11.6761321946 0 0 0 0 0 0 0.000000
1 113 2.5244315725 0.0692413518 10.5498546993 0 0 0 0 0 0 0.000000
1 114 3.5950730565 1.9897391697 9.5211623108 0 0 0 0 0 0 0.000000
1 115 1.2955905534 2.6686187672 10.0366628407 0 0 0 0 0 0 0.000000
1 116 2.4801811253 4.5206185231 8.9788432843 0 0 0 0 0 0 0.000000
1 117 0.3387393028 5.0171036846 9.6220720108 0 0 0 0 0 0 0.000000
1 118 3.5410225669 0.091522233 7.9723104423 0 0 0 0 0 0 0.000000
1 119 4.6985152261 1.9815820337 6.9439024231 0 0 0 0 0 0 0.000000
1 120 2.3972873999 2.6457615706 7.4923964874 0 0 0 0 0 0 0.000000
1 121 3.4978407349 4.5366047442 6.4367773145 0 0 0 0 0 0 0.000000
1 122 1.0176253494 5.1093028598 7.0410303699 0 0 0 0 0 0 0.000000
1 123 4.6502448145 0.0887958452 5.4156909059 0 0 0 0 0 0 0.000000
1 124 5.8810268763 1.9707522315 4.3679598128 0 0 0 0 0 0 0.000000
1 125 3.5036921866 2.6022909533 4.9201615557 0 0 0 0 0 0 0.000000
1 126 4.6890178171 4.5057071552 3.8763053095 0 0 0 0 0 0 0.000000
1 127 2.3332954428 5.1706248281 4.3943084525 0 0 0 0 0 0 0.000000
1 128 5.8339407375 0.0631551674 2.8302240733 0 0 0 0 0 0 0.000000
1 129 4.6755191882 2.6048391953 2.3147527184 0 0 0 0 0 0 0.000000
1 130 5.8419299321 4.4937161125 1.2710728359 0 0 0 0 0 0 0.000000
1 131 3.5417646936 5.1526198745 1.7807707923 0 0 0 0 0 0 0.000000
1 132 2.397633889 5.7901552837 15.206811763 0 0 0 0 0 0 0.000000
1 133 5.9282437529 0.6866832651 13.6433190923 0 0 0 0 0 0 0.000000
1 134 3.5307644432 1.3409588044 14.1694011106 0 0 0 0 0 0 0.000000
1 135 4.7900759431 3.2334124914 13.1212887236 0 0 0 0 0 0 0.000000
1 136 2.5801617189 3.8233497305 13.6322950707 0 0 0 0 0 0 0.000000
1 137 3.5974649548 5.7903574651 12.6250618477 0 0 0 0 0 0 0.000000
1 138 4.7771718395 1.3373281701 11.5791519682 0 0 0 0 0 0 0.000000
1 139 5.9444246323 3.2507709025 10.5339227322 0 0 0 0 0 0 0.000000
1 140 3.6172808964 3.8885883441 11.0677702891 0 0 0 0 0 0 0.000000
1 141 4.8039613895 5.7729946437 10.0291810032 0 0 0 0 0 0 0.000000
1 142 5.9188711924 1.3335610454 8.9985400036 0 0 0 0 0 0 0.000000
1 143 4.7668871468 3.8803597424 8.4792313698 0 0 0 0 0 0 0.000000
1 144 5.9048539751 5.7686816031 7.4502339913 0 0 0 0 0 0 0.000000
1 145 5.9089574451 3.8626539111 5.9131235541 0 0 0 0 0 0 0.000000
1 146 5.8535276398 2.5892811161 15.2038105198 0 0 0 0 0 0 0.000000
1 147 4.7174835014 5.141866999 14.6931380406 0 0 0 0 0 0 0.000000
1 148 5.9915168604 5.1418006465 12.0787324061 0 0 0 0 0 0 0.000000
1 149 6.912686518 1.9877064216 1.8109880699 0 0 0 0 0 0 0.000000
1 150 6.9919994592 0.0381217998 0.2165457496 0 0 0 0 0 0 0.000000
1 151 7.1324224341 0.7009369398 11.0779890101 0 0 0 0 0 0 0.000000
1 152 8.2048546865 0.6642782895 8.4278737789 0 0 0 0 0 0 0.000000
1 153 7.0635944873 3.2321864168 7.9528980921 0 0 0 0 0 0 0.000000
1 154 9.1767343808 0.5630843786 5.8668405739 0 0 0 0 0 0 0.000000
1 155 7.0310453562 1.3493123519 6.4122471649 0 0 0 0 0 0 0.000000
1 156 8.391790002 3.1713573747 5.3660584655 0 0 0 0 0 0 0.000000
1 157 6.9588951459 5.7731674783 4.894379795 0 0 0 0 0 0 0.000000
1 158 8.3419071287 1.3408269661 3.7574203009 0 0 0 0 0 0 0.000000
1 159 9.4868175864 3.329619525 2.5501679119 0 0 0 0 0 0 0.000000
1 160 7.0617362511 3.8519941577 3.3578525366 0 0 0 0 0 0 0.000000
1 161 8.1286404739 5.7154144391 2.2958731032 0 0 0 0 0 0 0.000000
1 162 8.9878738349 1.3617911214 1.2473239837 0 0 0 0 0 0 0.000000
1 163 8.1115218478 3.8280548502 0.6886737731 0 0 0 0 0 0 0.000000
1 164 8.1995885814 1.8862759463 14.6593254678 0 0 0 0 0 0 0.000000
1 165 7.0313052251 4.5109887838 14.166777769 0 0 0 0 0 0 0.000000
1 166 8.4049831775 0.0079166256 13.1542053488 0 0 0 0 0 0 0.000000
1 167 9.2798664364 2.0660863013 12.2196470521 0 0 0 0 0 0 0.000000
1 168 7.0423817957 2.6184913462 12.5933992445 0 0 0 0 0 0 0.000000
1 169 8.5431766835 4.5341158702 11.4837339855 0 0 0 0 0 0 0.000000
1 170 9.4747433233 0.2925381379 10.3861567056 0 0 0 0 0 0 0.000000
1 171 8.2458886125 2.624639753 9.9852044208 0 0 0 0 0 0 0.000000
1 172 9.8332112318 4.6313091871 9.0187475453 0 0 0 0 0 0 0.000000
1 173 7.1844436121 5.1259627078 9.5071060294 0 0 0 0 0 0 0.000000
1 174 9.4184839738 2.6209572303 7.6719597909 0 0 0 0 0 0 0.000000
1 175 8.3283724462 5.0141503406 6.9713121205 0 0 0 0 0 0 0.000000
1 176 9.1693019475 5.24644096 4.4109731592 0 0 0 0 0 0 0.000000
1 177 9.4285730111 5.7740872269 15.4843469768 0 0 0 0 0 0 0.000000
1 178 9.1807148162 3.7922289145 13.6773031012 0 0 0 0 0 0 0.000000
2 179 6.84 0.73521942 3.91 0.38571400 596.65343875 -0.14328600 1.392285 0.253556 0.122342 1.302513
2 180 6.98 4.43 10.98 0.33831400 582.43640613 -0.26958600 1.397741 0.238245 0.135937 1.335274
2 181 7.0 3.93 11.59 0.28411400 568.57067122 -0.27188600 1.384243 0.235390 0.135959 1.342183
2 182 7.14 1.04521942 4.81 0.35821400 602.48687171 -0.05608600 1.390892 0.254277 0.132705 1.312663
2 183 7.18 6.06 6.48 0.34561400 616.57088381 0.13221400 1.384920 0.246632 0.166801 1.361052
2 184 7.2 0.99 12.67 0.30761400 608.35641854 0.12271400 1.411114 0.248915 0.200674 1.387939
2 185 7.3 4.25 12.55 0.23861400 574.12658505 -0.15998600 1.389834 0.228803 0.138926 1.319358
2 186 7.4 1.94 4.94 0.35101400 596.52186354 -0.05478600 1.397331 0.250333 0.133879 1.312317
2 187 7.42 4.44 5.72 0.36141400 597.37493293 0.12251400 1.391816 0.246065 0.200309 1.378214
2 188 7.43 3.36 11.19 0.29441400 592.23640280 -0.27068600 1.391096 0.237971 0.136499 1.339044
2 189 7.51 5.7 11.94 0.33571400 576.70879278 -0.21348600 1.409871 0.254704 0.135708 1.344699
2 190 7.52 5.03 12.68 0.26441400 576.97202066 -0.15638600 1.382571 0.232212 0.164889 1.321835
2 191 8.02 2.64 2.81 0.32281400 601.16393287 0.11211400 1.403923 0.246448 0.182295 1.381837
2 192 8.02 5.73 14.63 0.29071400 585.01117039 0.09301400 1.379520 0.242238 0.178392 1.358798
2 193 8.25 4.29 8.5 0.06311400 556.02390074 -0.18698600 1.373630 0.172162 0.142410 1.360508
2 194 8.27 3.95 8.91 0.06311400 550.74427038 -0.18788600 1.373327 0.172251 0.142617 1.359807
2 195 8.4 2.98 3.73 0.22861400 554.61579829 0.04721400 1.410862 0.244160 0.192922 1.382373
2 196 8.42 6.15 11.53 0.35731400 574.52497656 0.09961400 1.410032 0.251846 0.206573 1.406709
2 197 8.47 5.39 8.54 0.26411400 580.03967585 -0.08288600 1.401771 0.253127 0.134352 1.359478
2 198 8.5 4.23 9.87 0.21111400 556.91237131 -0.06478600 1.417542 0.254388 0.174065 1.370775
2 199 8.52 3.63 8.67 0.06311400 571.41955846 -0.18618600 1.372318 0.171626 0.142653 1.359926
2 200 8.52 5.16 14.27 0.36901400 602.64913528 0.09401400 1.384383 0.240925 0.175936 1.362651
2 201 8.55 1.95 6.45 0.37411400 603.10283715 0.17401400 1.386660 0.241810 0.187965 1.368832
2 202 8.55 3.93 8.21 0.06311400 572.25237513 -0.18998600 1.373849 0.171252 0.143040 1.360614
2 203 8.62 3.79 3.86 0.34521400 587.13318944 0.04701400 1.374302 0.235041 0.189451 1.379133
2 204 9.25 0.07521942 3.26 0.26061400 509.95925489 -0.04008600 1.333588 0.210061 0.182568 1.322745
2 205 9.33 0.50521942 2.66 0.15061400 484.43862377 0.02371400 1.329152 0.186835 0.165263 1.318188
2 206 9.41 1.92 4.91 -0.07078600 475.14832128 -0.12228600 1.298467 0.133330 0.125893 1.306347
2 207 9.43 3.72 10.34 0.09751400 518.88021445 -0.05638600 1.409459 0.224114 0.181703 1.394095
2 208 9.47 5.13 12.73 0.01741400 508.78285738 -0.07798600 1.318016 0.160421 0.139725 1.315067
2 209 9.47 5.88 11.91 0.01741400 502.61147961 -0.07838600 1.317742 0.160019 0.138898 1.315278
2 210 9.5 6.17 1.54301995 0.32161400 566.08984841 0.07051400 1.371437 0.245072 0.186646 1.348192
2 211 9.85 4.26 7.31 0.03411400 439.90154933 -0.13108600 1.367890 0.196312 0.164698 1.357251
2 212 9.97 5.01 10.68 -0.02538600 452.61318234 -0.12848600 1.381862 0.205979 0.173632 1.367698
2 213 9.99 5.02 7.36 -0.02118600 457.52605522 -0.14378600 1.372890 0.203125 0.170544 1.353036
2 214 10.0 1.45 9.01 -0.07228600 470.42187404 -0.12408600 1.310442 0.154420 0.145700 1.310676
2 215 10.47 3.13 8.81 0.13341400 522.33731931 -0.04688600 1.404650 0.249505 0.207368 1.387724
2 216 10.49 5.82 6.15 0.03661400 488.78498599 -0.06158600 1.312790 0.147026 0.122572 1.307662
2 217 10.51 5.1 5.38 0.11981400 506.21123201 -0.06028600 1.313493 0.147694 0.126913 1.301456
2 218 10.62 1.85 13.18 -0.07718600 471.80621824 -0.09118600 1.295488 0.132642 0.161860 1.304251
2 219 10.65 3.72 7.88 0.15451400 501.59399739 -0.08828600 1.406624 0.230154 0.189876 1.376899
2 220 10.75 5.68 9.91 0.12271400 534.81549817 -0.06688600 1.410265 0.224300 0.153376 1.378998
2 221 10.75 0.43521942 15.44 0.24441400 509.97866865 0.05701400 1.345323 0.209305 0.177762 1.325358
2 222 11.2 5.11 8.16 0.11241400 496.25510874 -0.11498600 1.387473 0.223591 0.184002 1.369356
2 223 11.24 5.54 8.83 0.04301400 505.30430789 -0.09048600 1.377507 0.200980 0.163114 1.362564
2 224 11.33 4.18 8.31 -0.00208600 470.18933497 -0.08618600 1.374740 0.205042 0.174136 1.357958
2 225 11.36 5.27 9.42 0.09901400 484.03736306 -0.08618600 1.367703 0.201916 0.148246 1.356042
2 226 11.42 3.73 14.2 0.36551400 598.17160798 0.06361400 1.382915 0.246658 0.197949 1.387726
2 227 11.49 1.89 11.59 0.29431400 587.97842782 0.12931400 1.368648 0.231384 0.181655 1.360698
2 228 11.51 1.39 11.02 0.46881400 610.78915135 0.12841400 1.363278 0.231691 0.178311 1.362926
2 229 11.63 2.88 14.33 0.28671400 561.95840928 0.06331400 1.418071 0.252458 0.199558 1.401399
2 230 11.99 2.53 15.29 0.33091400 604.99620813 0.11121400 1.399178 0.244056 0.179182 1.383556
2 231 12.01 2.45 11.25 0.32761400 591.42617728 0.12781400 1.381067 0.242625 0.191420 1.367073
2 232 12.01 5.63 3.49 0.32711400 599.65936358 0.07951400 1.382016 0.247456 0.155914 1.348867
2 233 12.18 3.91 5.27 0.18341400 597.87749170 -0.11228600 1.376296 0.223667 0.137867 1.321048
2 234 12.5 4.94 5.43 0.20701400 558.51202587 -0.11238600 1.377001 0.223527 0.136702 1.324620
2 235 12.52 5.59 6.13 0.21591400 565.49488367 -0.18408600 1.402094 0.247874 0.137401 1.349019
2 236 12.59 4.35 12.28 0.28811400 589.82456684 0.11641400 1.388889 0.246237 0.202622 1.382424
2 237 12.6 1.83 13.13 0.39701400 596.07039439 -0.06178600 1.394974 0.248695 0.136163 1.324224
2 238 12.63 3.35 6.88 0.14031400 573.23782115 -0.25188600 1.374645 0.211721 0.136027 1.338066
2 239 12.65 3.8 7.48 0.22231400 589.70448358 -0.25148600 1.381449 0.192377 0.136091 1.335376
2 240 12.69 4.16 5.56 0.18341400 553.17512752 -0.11198600 1.375709 0.224024 0.135975 1.324168
2 241 12.82 5.92 11.59 0.29721400 599.80376791 0.11631400 1.396758 0.240457 0.178450 1.365349
2 242 12.84 0.90521942 5.42 0.31221400 608.10895118 0.11881400 1.405433 0.253439 0.202530 1.388838
2 243 12.85 0.92521942 13.26 0.43431400 605.85162022 -0.06298600 1.378903 0.253537 0.137357 1.325016
2 244 12.99 3.83 6.55 0.14031400 547.50771011 -0.25138600 1.372865 0.211132 0.135469 1.339815
2 245 9.43 4.77 1.46301995 -0.05268600 466.48663168 -0.10248600 1.315833 0.156073 0.142977 1.314999
2 246 9.52 2.58 4.14 -0.07078600 435.74440343 -0.12218600 1.300590 0.131271 0.125856 1.307859
2 247 9.52 4.83 1.52301995 -0.05268600 458.59000088 -0.10288600 1.317727 0.157553 0.143286 1.314681
2 248 9.58 1.67 9.21 -0.07228600 488.60252800 -0.12438600 1.312560 0.155751 0.145946 1.310611
2 249 9.69 3.92 6.41 -0.03518600 420.65625281 -0.09908600 1.319578 0.154115 0.144286 1.318485
2 250 9.7 2.32 4.43 0.02331400 418.31424057 -0.12218600 1.299714 0.134300 0.126343 1.306468
2 251 9.71 4.34 5.93 0.09041400 422.08469535 -0.07998600 1.288588 0.146523 0.142098 1.298266
2 252 9.72 5.49 12.36 0.01741400 469.86969143 -0.07808600 1.317309 0.160620 0.139279 1.314614
2 253 9.76 4.42 1.12301995 -0.02978600 452.99814331 -0.07888600 1.300394 0.131739 0.121724 1.301496
2 254 9.77 4.28 5.86 0.01461400 429.39442611 -0.07998600 1.289114 0.147171 0.142266 1.298535
2 255 9.78 0.85521942 14.21 -0.00008600 354.24784294 -0.03598600 1.286984 0.134190 0.140223 1.302526
2 256 9.8 1.15 13.84 -0.05288600 361.78448618 -0.10158600 1.270163 0.136513 0.145254 1.278273
2 257 9.81 1.36 8.94 -0.07228600 478.75010315 -0.12398600 1.311082 0.157423 0.145508 1.309555
2 258 9.86 1.08 13.75 -0.05288600 370.10300221 -0.10148600 1.271575 0.138532 0.144575 1.279119
2 259 9.89 5.24 6.07 0.03661400 431.66483351 -0.06208600 1.313780 0.148437 0.125269 1.305495
2 260 9.92 3.57 6.22 -0.03508600 455.31863856 -0.09848600 1.321489 0.155561 0.142915 1.319960
2 261 9.93 1.11521942 2.82 -0.02268600 393.39706962 -0.07618600 1.277578 0.133775 0.136403 1.286266
2 262 9.93 1.23521942 15.11 -0.02608600 376.44256740 -0.08298600 1.279431 0.136344 0.139256 1.286683
2 263 9.95 1.54 2.83 -0.02268600 391.97134779 -0.07528600 1.279244 0.132617 0.136777 1.283775
2 264 9.97 5.44 6.49 0.04871400 443.89219383 -0.06208600 1.304347 0.150013 0.123036 1.306542
2 265 9.98 1.48 15.15 -0.02608600 381.58382745 -0.08288600 1.278983 0.135548 0.140546 1.291421
2 266 9.99 2.11 14.06 -0.07718600 375.20025875 -0.12118600 1.295681 0.133041 0.126626 1.298192
2 267 9.99 3.62 6.0 -0.03518600 464.47384416 -0.09858600 1.318956 0.154350 0.143337 1.318708
2 268 9.99 0.46521942 14.02 -0.09348600 392.10235850 -0.15038600 1.293273 0.151878 0.147596 1.296877
2 269 10.01 1.55 2.91 -0.02268600 381.82034842 -0.07518600 1.278879 0.134685 0.136518 1.283512
2 270 10.02 2.14 3.89 -0.07078600 373.60599039 -0.12228600 1.297343 0.128766 0.126666 1.305791
2 271 10.02 0.57521942 4.17 -0.00728600 387.82528476 -0.13898600 1.281864 0.138099 0.140720 1.286523
2 272 10.03 5.44 11.54 0.03391400 444.13828265 -0.07838600 1.311238 0.162649 0.137667 1.316755
2 273 10.04 0.48521942 13.89 -0.09348600 400.82478833 -0.14988600 1.294621 0.151797 0.147561 1.297880
2 274 10.05 2.05 4.11 -0.07078600 372.85446391 -0.12228600 1.300760 0.128410 0.126149 1.310384
2 275 10.05 3.7 12.08 -0.07678600 443.13310932 -0.12218600 1.316589 0.134635 0.124761 1.305880
2 276 10.05 0.55521942 4.06 -0.07378600 384.97025869 -0.13898600 1.282273 0.137696 0.140748 1.287261
2 277 10.06 1.16521942 15.26 -0.02608600 395.40525540 -0.08288600 1.279372 0.135619 0.139543 1.287286
2 278 10.07 1.47 15.26 0.07521400 396.37789334 -0.08298600 1.279422 0.135493 0.138757 1.291637
2 279 10.07 1.19521942 2.98 -0.02268600 372.42630648 -0.07548600 1.277250 0.135563 0.136469 1.285914
2 280 10.08 4.21 10.7 -0.01528600 431.73412541 -0.13368600 1.376134 0.190872 0.168962 1.370566
2 281 10.1 4.57 1.26301995 -0.06478600 435.95286352 -0.10298600 1.307087 0.140122 0.133780 1.309467
2 282 10.13 5.19 12.02 0.01741400 429.36751926 -0.07818600 1.316914 0.160828 0.138802 1.318514
2 283 10.14 3.64 11.78 -0.07668600 431.82428642 -0.12238600 1.317071 0.134636 0.120578 1.313112
2 284 10.2 1.07521942 4.26 -0.07618600 366.48883480 -0.11338600 1.268596 0.135652 0.135157 1.281887
2 285 10.21 0.81521942 3.93 0.05921400 359.33365574 -0.06498600 1.278743 0.115916 0.109515 1.282158
2 286 10.25 3.82 11.7 -0.07678600 415.60487263 -0.12198600 1.316142 0.135176 0.121278 1.312570
2 287 10.26 4.23 12.16 -0.03268600 418.98636067 -0.12128600 1.292809 0.135925 0.124123 1.302452
2 288 10.26 5.5 5.78 0.03661400 466.00696971 -0.06168600 1.313579 0.147946 0.127579 1.305432
2 289 10.27 1.32 9.12 -0.07908600 483.66247775 -0.13508600 1.309665 0.154991 0.143930 1.304535
2 290 10.27 4.48 1.33301995 -0.06478600 447.15176951 -0.10268600 1.307756 0.139132 0.134208 1.308671
2 291 10.3 2.32 13.73 -0.07718600 410.72162631 -0.12078600 1.294917 0.133073 0.125981 1.297758
2 292 10.39 2.45 13.86 -0.07718600 419.56149923 -0.12088600 1.295460 0.132930 0.125735 1.295928
2 293 10.42 1.66 8.82 -0.07908600 486.03552710 -0.13488600 1.310072 0.155540 0.144139 1.305664
2 294 10.51 4.72 1.10301995 -0.06478600 455.66486443 -0.10318600 1.306231 0.138548 0.134555 1.313512
2 295 10.56 1.57 8.89 -0.07908600 496.97746452 -0.13498600 1.310165 0.154108 0.141596 1.306732
2 296 11.53 3.99 9.46 -0.18188600 467.06180665 -0.22148600 1.363385 0.150571 0.141964 1.360357
2 297 11.54 3.89 9.34 -0.18198600 469.26914634 -0.22148600 1.361753 0.150968 0.142258 1.361958
