ITEM: TIMESTEP
0
ITEM: NUMBER OF ATOMS
297
ITEM: BOX BOUNDS pp pp pp
0.0 21.54161332
0.0 6.33478058
0.0 15.51698005
ITEM: ATOMS type id x y z SE CD SE_NF BC ZPE ZPE_NF BC_NF
1 1 14.3731374658 0.3262137242 5.2551508353 0 0 0 0 0 0 0.000000
1 2 15.5611235013 0.3403441863 2.6477830486 0 0 0 0 0 0 0.000000
1 3 14.3590571842 6.0332829006 0.595114722 0 0 0 0 0 0 0.000000
1 4 16.7506522441 0.3504772644 0.0757499024 0 0 0 0 0 0 0.000000
1 5 14.3643110501 1.5783669457 14.563314907 0 0 0 0 0 0 0.000000
1 6 17.9362222099 0.3428005058 13.0162311768 0 0 0 0 0 0 0.000000
1 7 15.5893621141 6.0336543446 13.5311560893 0 0 0 0 0 0 0.000000
1 8 15.5807046786 1.5915238642 11.9873594102 0 0 0 0 0 0 0.000000
1 9 19.0751912582 0.3425187784 10.4072080706 0 0 0 0 0 0 0.000000
1 10 16.7540781163 6.036115056 10.9490703421 0 0 0 0 0 0 0.000000
1 11 16.7285425456 1.6006181821 9.3927694366 0 0 0 0 0 0 0.000000
1 12 14.4094665615 0.9550379924 9.9117301229 0 0 0 0 0 0 0.000000
1 13 14.3480796252 2.8656697801 8.3610596382 0 0 0 0 0 0 0.000000
1 14 20.2476895836 0.2996047292 7.8231630767 0 0 0 0 0 0 0.000000
1 15 17.8948544086 6.0475464083 8.3541872905 0 0 0 0 0 0 0.000000
1 16 17.7386764802 1.5656198599 6.815086374 0 0 0 0 0 0 0.000000
1 17 15.5110994357 0.9634961684 7.3301388636 0 0 0 0 0 0 0.000000
1 18 15.5354624232 2.8756121939 5.7693498365 0 0 0 0 0 0 0.000000
1 19 19.1263932297 6.0511633756 5.7362944504 0 0 0 0 0 0 0.000000
1 20 18.9942039187 1.650795707 4.2103352077 0 0 0 0 0 0 0.000000
1 21 16.6857554838 0.9709132967 4.7258655239 0 0 0 0 0 0 0.000000
1 22 16.712519265 2.8867923874 3.1765905128 0 0 0 0 0 0 0.000000
1 23 14.386407199 2.2289638924 3.6836562563 0 0 0 0 0 0 0.000000
1 24 14.4004999144 4.1330237821 2.137986087 0 0 0 0 0 0 0.000000
1 25 20.0538386062 6.0510600736 3.2089887123 0 0 0 0 0 0 0.000000
1 26 20.1431092219 1.5429922883 1.8182079041 0 0 0 0 0 0 0.000000
1 27 17.8550815272 0.9812554358 2.1475185374 0 0 0 0 0 0 0.000000
1 28 17.9495598731 2.8976116694 0.6128909198 0 0 0 0 0 0 0.000000
1 29 15.5568915504 2.2293534509 1.101585133 0 0 0 0 0 0 0.000000
1 30 15.5448216122 4.1236798989 15.0861109764 0 0 0 0 0 0 0.000000
1 31 19.1663032751 1.095422737 15.1105219822 0 0 0 0 0 0 0.000000
1 32 19.2607953391 2.9170667657 13.4786047039 0 0 0 0 0 0 0.000000
1 33 16.7876729561 2.2325725812 14.0481389889 0 0 0 0 0 0 0.000000
1 34 16.7802951111 4.1334673096 12.4935398345 0 0 0 0 0 0 0.000000
1 35 14.4273089955 3.4816649992 13.0159976088 0 0 0 0 0 0 0.000000
1 36 14.4227894474 5.3881282936 11.4574345383 0 0 0 0 0 0 0.000000
1 37 20.3966147023 0.8481556153 12.5748441651 0 0 0 0 0 0 0.000000
1 38 20.0539353764 2.8243665034 10.8146224624 0 0 0 0 0 0 0.000000
1 39 17.9030174075 2.2193622242 11.4859366438 0 0 0 0 0 0 0.000000
1 40 17.8784867267 4.1374110616 9.8959408491 0 0 0 0 0 0 0.000000
1 41 15.5848365628 3.4971310051 10.4225659937 0 0 0 0 0 0 0.000000
1 42 15.5476355631 5.397423842 8.8748204842 0 0 0 0 0 0 0.000000
1 43 19.0912218416 2.2289429604 8.8199823544 0 0 0 0 0 0 0.000000
1 44 19.0332399962 4.2002871196 7.3264682019 0 0 0 0 0 0 0.000000
1 45 16.6909373041 3.5139449199 7.8425543623 0 0 0 0 0 0 0.000000
1 46 16.7059028694 5.4065194421 6.2925995866 0 0 0 0 0 0 0.000000
1 47 14.3344077373 4.7518180732 6.8102102063 0 0 0 0 0 0 0.000000
1 48 19.842929648 2.2025603456 6.4217299027 0 0 0 0 0 0 0.000000
1 49 20.3528534601 4.0401160341 4.8483826529 0 0 0 0 0 0 0.000000
1 50 17.8555745275 3.527310401 5.2556447768 0 0 0 0 0 0 0.000000
1 51 17.8559394934 5.4085727729 3.7218154574 0 0 0 0 0 0 0.000000
1 52 15.538504439 4.7736712697 4.2159034634 0 0 0 0 0 0 0.000000
1 53 19.0649902913 3.5569160016 2.6994682837 0 0 0 0 0 0 0.000000
1 54 19.1460998951 5.4560294574 1.0975590379 0 0 0 0 0 0 0.000000
1 55 16.7374889996 4.778670441 1.6269089697 0 0 0 0 0 0 0.000000
1 56 20.3463612269 3.5968600916 0.0915882562 0 0 0 0 0 0 0.000000
1 57 19.7950256946 5.4235361962 14.1125794485 0 0 0 0 0 0 0.000000
1 58 17.7832545548 4.7237233192 14.5953658782 0 0 0 0 0 0 0.000000
1 59 19.177636725 4.7920603877 11.9007714239 0 0 0 0 0 0 0.000000
1 60 20.1716527347 4.6802161784 9.4006341298 0 0 0 0 0 0 0.000000
1 61 10.7597156817 0.2867276386 12.6365810933 0 0 0 0 0 0 0.000000
1 62 12.0979423222 0.2940919142 10.4214465158 0 0 0 0 0 0 0.000000
1 63 13.2504498891 0.3387851639 7.8414309015 0 0 0 0 0 0 0.000000
1 64 11.004001015 -0.1912346154 8.2318793198 0 0 0 0 0 0 0.000000
1 65 11.0307600738 1.5575580014 6.7824827104 0 0 0 0 0 0 0.000000
1 66 12.0176736988 5.9773502254 5.7840835747 0 0 0 0 0 0 0.000000
1 67 12.0759228365 1.590327807 4.2351023504 0 0 0 0 0 0 0.000000
1 68 13.2831724131 6.054794181 3.1475995292 0 0 0 0 0 0 0.000000
1 69 13.1670753573 1.5876697874 1.5928882356 0 0 0 0 0 0 0.000000
1 70 10.7581690603 1.0998213769 2.2810962035 0 0 0 0 0 0 0.000000
1 71 11.005307073 2.95653529 0.5012996804 0 0 0 0 0 0 0.000000
1 72 11.8422136532 0.8928179706 15.0496631309 0 0 0 0 0 0 0.000000
1 73 12.0473934894 2.7871452535 13.5526913596 0 0 0 0 0 0 0.000000
1 74 13.2520622052 0.9360343351 12.4978053736 0 0 0 0 0 0 0.000000
1 75 13.3185238905 2.878012416 10.9134816602 0 0 0 0 0 0 0.000000
1 76 11.2007169443 2.2690447316 11.4642327636 0 0 0 0 0 0 0.000000
1 77 11.9408415178 2.2107900131 8.9295225408 0 0 0 0 0 0 0.000000
1 78 11.8527921889 4.0819071361 7.3227988279 0 0 0 0 0 0 0.000000
1 79 13.2208041751 2.2512673991 6.2880545949 0 0 0 0 0 0 0.000000
1 80 13.2333275818 4.1229662692 4.7358328293 0 0 0 0 0 0 0.000000
1 81 10.8145173103 3.5627106722 5.024590432 0 0 0 0 0 0 0.000000
1 82 11.1510511381 5.4700372368 3.6702550771 0 0 0 0 0 0 0.000000
1 83 12.0963226451 3.4861587768 2.6643988216 0 0 0 0 0 0 0.000000
1 84 11.8900070499 5.4045051501 1.1572308231 0 0 0 0 0 0 0.000000
1 85 13.2584228908 3.5023518471 0.0789071966 0 0 0 0 0 0 0.000000
1 86 13.2436176873 5.4062519715 14.05005288 0 0 0 0 0 0 0.000000
1 87 11.0412554325 4.6818139603 14.539435698 0 0 0 0 0 0 0.000000
1 88 12.1455929964 4.7038286794 12.0254950235 0 0 0 0 0 0 0.000000
1 89 13.1937485787 4.7548783312 9.3642896701 0 0 0 0 0 0 0.000000
1 90 0.4601901779 2.1012572679 0.816863116 0 0 0 0 0 0 0.000000
1 91 0.0932026883 0.2296578526 14.9373017609 0 0 0 0 0 0 0.000000
1 92 21.4849143183 0.8199950831 10.196937168 0 0 0 0 0 0 0.000000
1 93 1.1819289493 1.0609171168 7.6366253481 0 0 0 0 0 0 0.000000
1 94 0.0098695654 3.5705102449 7.1534805819 0 0 0 0 0 0 0.000000
1 95 2.474694811 0.9280924244 5.0856035641 0 0 0 0 0 0 0.000000
1 96 1.3190832923 3.4711008438 4.5430549904 0 0 0 0 0 0 0.000000
1 97 0.4413147181 5.7623398307 4.0072595497 0 0 0 0 0 0 0.000000
1 98 3.6604128987 0.9250661665 2.5012217303 0 0 0 0 0 0 0.000000
1 99 1.3169932525 1.5418432945 2.9883053126 0 0 0 0 0 0 0.000000
1 100 2.4860206244 3.4441916561 1.980433868 0 0 0 0 0 0 0.000000
1 101 -0.0122050315 3.8964506991 2.4155425611 0 0 0 0 0 0 0.000000
1 102 1.1862079919 5.9545413475 1.4967473642 0 0 0 0 0 0 0.000000
1 103 4.8374355873 0.9231520755 15.432029709 0 0 0 0 0 0 0.000000
1 104 2.58946703 1.5064321906 0.4276979682 0 0 0 0 0 0 0.000000
1 105 3.6574836893 3.4605959933 14.9203670554 0 0 0 0 0 0 0.000000
1 106 1.3131807393 4.1113644222 15.4415037769 0 0 0 0 0 0 0.000000
1 107 1.2500302351 2.1710044384 13.9517730895 0 0 0 0 0 0 0.000000
1 108 0.1583593688 4.6289249272 13.3650085132 0 0 0 0 0 0 0.000000
1 109 1.2625585329 0.2934148218 12.3596088397 0 0 0 0 0 0 0.000000
1 110 2.4387103157 2.1790658436 11.2802027471 0 0 0 0 0 0 0.000000
1 111 0.3052558883 2.7723135714 11.9544578404 0 0 0 0 0 0 0.000000
1 112 1.1545070151 4.7531091193 10.8518836959 0 0 0 0 0 0 0.000000
1 113 2.3994649814 0.3037508127 9.7491324178 0 0 0 0 0 0 0.000000
1 114 3.5456774131 2.2028749151 8.7116051824 0 0 0 0 0 0 0.000000
1 115 1.0708301199 2.8762354278 9.2813434798 0 0 0 0 0 0 0.000000
1 116 2.5509101504 4.6854827833 8.1714307741 0 0 0 0 0 0 0.000000
1 117 0.5330135212 5.4062925751 8.6357691519 0 0 0 0 0 0 0.000000
1 118 3.5859481262 0.320180688 7.1604810074 0 0 0 0 0 0 0.000000
1 119 4.7874738307 2.2033350224 6.1400274412 0 0 0 0 0 0 0.000000
1 120 2.3948295771 2.8515921614 6.6224264587 0 0 0 0 0 0 0.000000
1 121 3.6260125832 4.7315015759 5.6157811477 0 0 0 0 0 0 0.000000
1 122 1.2509215245 5.3952217153 6.1674089295 0 0 0 0 0 0 0.000000
1 123 4.7774173048 0.3120859828 4.5903091431 0 0 0 0 0 0 0.000000
1 124 5.9775044113 2.2011048198 3.5525193445 0 0 0 0 0 0 0.000000
1 125 3.6428539563 2.8289671775 4.0579108438 0 0 0 0 0 0 0.000000
1 126 4.8429292082 4.7220798082 3.0143167957 0 0 0 0 0 0 0.000000
1 127 2.5789237445 5.3337635715 3.4975215926 0 0 0 0 0 0 0.000000
1 128 5.9913523359 0.2894946462 1.983291557 0 0 0 0 0 0 0.000000
1 129 4.8278720201 2.8280683568 1.4690656314 0 0 0 0 0 0 0.000000
1 130 6.0321636328 4.7152487323 0.4367485255 0 0 0 0 0 0 0.000000
1 131 3.6462072316 5.3495081879 0.9485733034 0 0 0 0 0 0 0.000000
1 132 2.445067269 5.9857099576 14.4155374765 0 0 0 0 0 0 0.000000
1 133 5.9337749829 0.9355909513 12.855733589 0 0 0 0 0 0 0.000000
1 134 3.6134880709 1.5538300561 13.374485236 0 0 0 0 0 0 0.000000
1 135 4.7538181452 3.4652381412 12.3459452282 0 0 0 0 0 0 0.000000
1 136 2.4597945213 4.0919789654 12.869917331 0 0 0 0 0 0 0.000000
1 137 3.5805050576 5.9987318576 11.8224364904 0 0 0 0 0 0 0.000000
1 138 4.7531341274 1.567541073 10.7784756605 0 0 0 0 0 0 0.000000
1 139 5.9035699951 3.4754608962 9.7497197392 0 0 0 0 0 0 0.000000
1 140 3.5553436247 4.1018992432 10.2750194728 0 0 0 0 0 0 0.000000
1 141 4.7400402038 6.0126922444 9.231938154 0 0 0 0 0 0 0.000000
1 142 5.961837722 1.5706765443 8.1976560599 0 0 0 0 0 0 0.000000
1 143 4.7909737923 4.1000191274 7.6784525596 0 0 0 0 0 0 0.000000
1 144 5.9831956462 6.0181660323 6.6503058588 0 0 0 0 0 0 0.000000
1 145 5.9607820603 4.1071140208 5.1049275921 0 0 0 0 0 0 0.000000
1 146 6.0162597411 2.8363640479 14.4050698065 0 0 0 0 0 0 0.000000
1 147 4.8065585958 5.3577513008 13.8917711861 0 0 0 0 0 0 0.000000
1 148 5.9100752523 5.3725625145 11.3121066651 0 0 0 0 0 0 0.000000
1 149 7.1547737995 2.2125925513 0.9545935259 0 0 0 0 0 0 0.000000
1 150 7.1112182407 0.3106756555 14.914162641 0 0 0 0 0 0 0.000000
1 151 7.0674071942 0.9456661222 10.2696670034 0 0 0 0 0 0 0.000000
1 152 8.4665101037 0.9240860763 7.6944020423 0 0 0 0 0 0 0.000000
1 153 7.0791965603 3.5099173079 7.1652910181 0 0 0 0 0 0 0.000000
1 154 9.6446894293 1.1567465526 4.9309382009 0 0 0 0 0 0 0.000000
1 155 7.1813158826 1.5780091141 5.6511744032 0 0 0 0 0 0 0.000000
1 156 8.286064439 3.4462377861 4.5890770876 0 0 0 0 0 0 0.000000
1 157 7.0186314405 6.0432318006 4.1080241782 0 0 0 0 0 0 0.000000
1 158 8.2731229561 1.5205361197 2.9955491632 0 0 0 0 0 0 0.000000
1 159 9.601050231 3.4715675779 2.3241698146 0 0 0 0 0 0 0.000000
1 160 7.1535004461 4.0865044631 2.5079061146 0 0 0 0 0 0 0.000000
1 161 8.3611014885 5.9318066648 1.4271903375 0 0 0 0 0 0 0.000000
1 162 9.3420262952 1.5012006658 0.4357591243 0 0 0 0 0 0 0.000000
1 163 8.5264710628 4.0429694509 -0.0662752681 0 0 0 0 0 0 0.000000
1 164 8.4651716513 2.2050741688 13.8214487686 0 0 0 0 0 0 0.000000
1 165 7.178125127 4.7270487099 13.4008182234 0 0 0 0 0 0 0.000000
1 166 8.2314414316 0.2753905549 12.3303888224 0 0 0 0 0 0 0.000000
1 167 9.1385410481 2.278322095 11.3237925932 0 0 0 0 0 0 0.000000
1 168 7.0223175503 2.8709253875 11.85385033 0 0 0 0 0 0 0.000000
1 169 8.2107488182 4.7493439212 10.778324377 0 0 0 0 0 0 0.000000
1 170 9.5059284125 0.4308996849 9.9599728277 0 0 0 0 0 0 0.000000
1 171 8.2680100742 2.8233301473 9.221006041 0 0 0 0 0 0 0.000000
1 172 9.2678248375 4.7594762748 8.2379091243 0 0 0 0 0 0 0.000000
1 173 7.0733060633 5.4127255878 8.7246063643 0 0 0 0 0 0 0.000000
1 174 9.3366335826 2.9911228716 6.8000805218 0 0 0 0 0 0 0.000000
1 175 8.4778235061 5.421345121 6.058344375 0 0 0 0 0 0 0.000000
1 176 9.1129299834 5.4615014653 3.5732253629 0 0 0 0 0 0 0.000000
1 177 9.3584736691 6.1028290057 14.4809437725 0 0 0 0 0 0 0.000000
1 178 9.5983026674 4.2216663415 12.7261657958 0 0 0 0 0 0 0.000000
2 179 6.97 4.8 6.17 0.30871400 599.45793889 -0.15348600 1.390383 0.248470 0.126457 1.308985
2 180 7.24 1.89 7.24 0.30381400 613.99115819 0.11451400 1.406054 0.253075 0.203535 1.389316
2 181 7.27 5.13 7.12 0.30441400 601.82869735 -0.09718600 1.399707 0.248096 0.127130 1.309979
2 182 7.31 5.03 14.99 0.30211400 611.92236009 0.10911400 1.400646 0.249639 0.194629 1.388542
2 183 7.51 5.99 7.25 0.29151400 592.32801845 -0.09648600 1.393995 0.241265 0.126335 1.308928
2 184 7.52 3.43 14.32 0.29861400 595.82251453 0.11261400 1.411268 0.254270 0.208687 1.399945
2 185 7.53 2.82 15.0 0.31831400 601.67655457 0.13781400 1.392300 0.248024 0.202203 1.386809
2 186 8.08 0.28521942 9.15 0.29011400 596.84293413 0.06031400 1.384333 0.239734 0.128849 1.359642
2 187 8.09 0.87521942 4.48 0.32711400 621.85822061 0.06671400 1.371681 0.223847 0.173697 1.387685
2 188 8.13 3.5 12.87 0.31231400 611.47898370 0.09211400 1.399776 0.241634 0.178113 1.389917
2 189 8.18 0.38521942 5.07 0.24151400 594.27342604 0.06551400 1.391372 0.229273 0.176386 1.383104
2 190 8.2 3.4 1.42 0.21601400 573.09270524 0.03201400 1.383191 0.229668 0.159547 1.358284
2 191 8.44 4.3 1.53 0.27771400 559.19155005 0.00491400 1.386599 0.253189 0.184856 1.365281
2 192 8.46 3.83 13.83 0.25501400 566.72113364 0.06331400 1.427763 0.257947 0.209673 1.388118
2 193 8.52 0.72521942 6.06 0.17261400 540.83223767 0.00121400 1.420771 0.246309 0.195801 1.397006
2 194 8.63 2.35 1.63 0.32191400 606.22130585 0.02781400 1.372172 0.228197 0.161548 1.352698
2 195 8.67 2.86 1.09 0.24611400 583.24619220 0.02791400 1.377782 0.225065 0.156649 1.348987
2 196 8.69 4.7 13.98 0.33971400 606.39855720 0.11571400 1.396442 0.256281 0.196590 1.382473
2 197 8.72 1.58 6.21 0.27581400 585.28665995 0.00041400 1.390447 0.239122 0.195560 1.393182
2 198 9.23 3.56 10.31 0.46031400 562.20837870 0.16871400 1.464730 0.283699 0.230588 1.435296
2 199 9.31 0.35521942 2.51 0.36201400 558.04810281 0.09241400 1.374052 0.240433 0.150244 1.343630
2 200 9.38 4.12 5.6 0.17161400 508.82932519 -0.02248600 1.374309 0.229722 0.191912 1.353794
2 201 9.39 0.92521942 13.3 0.12421400 489.00505918 -0.06668600 1.352551 0.219372 0.184574 1.337789
2 202 9.46 1.37 12.72 0.09111400 476.10225567 -0.04638600 1.342593 0.193608 0.166699 1.325229
2 203 9.47 4.58 4.97 0.18561400 484.17624286 0.00991400 1.339349 0.190530 0.170531 1.326375
2 204 9.51 3.85 11.14 0.47071400 591.09881342 0.19941400 1.486213 0.290926 0.242645 1.463573
2 205 9.6 0.72 11.56 0.28751400 555.49334977 0.02041400 1.393515 0.242801 0.172123 1.352177
2 206 9.61 0.66521942 3.37 0.33831400 584.89440745 0.06521400 1.402703 0.244065 0.175036 1.368861
2 207 9.62 6.08 7.17 -0.14328600 431.62471074 -0.19258600 1.296386 0.122055 0.144997 1.315838
2 208 9.67 2.85 14.9 -0.15058600 428.16876635 -0.18878600 1.294870 0.122657 0.145291 1.312051
2 209 9.68 3.95 3.89 0.30021400 559.11873335 0.04641400 1.382200 0.228260 0.175786 1.351930
2 210 10.13 4.19 3.68 0.30021400 575.30617313 0.04321400 1.382551 0.228327 0.169494 1.344527
2 211 10.66 0.76 11.07 0.26051400 553.66162258 -0.02068600 1.387753 0.240360 0.172376 1.347477
2 212 10.7 2.88 7.88 -0.18628600 414.75940996 -0.22848600 1.343521 0.135759 0.142321 1.332570
2 213 10.7 6.03 0.05301995 -0.13568600 434.26883458 -0.18588600 1.301819 0.125903 0.129863 1.306747
2 214 10.71 3.91 3.43 0.36091400 558.71617064 0.05871400 1.382140 0.240489 0.179349 1.352057
2 215 10.79 3.83 11.68 0.35031400 587.44715786 0.03141400 1.432655 0.250014 0.156549 1.376811
2 216 10.87 4.58 2.24 0.08211400 472.21187702 -0.06078600 1.330131 0.197258 0.166749 1.325419
2 217 10.88 1.42 10.01 0.06891400 467.59751283 -0.07678600 1.336073 0.179423 0.153038 1.320067
2 218 10.9 5.62 11.2 0.09441400 482.02704130 -0.10058600 1.419297 0.200009 0.166281 1.377717
2 219 10.95 4.13 1.65 0.12891400 496.83897686 -0.08258600 1.358623 0.216639 0.181492 1.330946
2 220 10.97 0.96 9.41 0.11491400 501.20539326 -0.09018600 1.372924 0.224619 0.184354 1.341408
2 221 11.06 0.39521942 4.69 0.29451400 566.05405748 0.07251400 1.391691 0.248775 0.191308 1.358392
2 222 11.07 3.55 12.47 0.27131400 565.19738818 0.03441400 1.388749 0.241357 0.175063 1.374594
2 223 11.63 4.73 8.82 0.35461400 574.13137201 0.13731400 1.456555 0.270586 0.221965 1.442475
2 224 11.65 1.55 1.00301995 0.32681400 606.42009341 0.07921400 1.390232 0.252531 0.151372 1.361929
2 225 11.71 6.05 13.87 0.21881400 573.22169344 -0.02188600 1.391437 0.218406 0.128573 1.343337
2 226 11.73 2.9 6.2 0.32921400 612.94379599 0.03481400 1.398092 0.244902 0.136466 1.348190
2 227 11.76 5.55 13.36 0.30331400 602.42485819 -0.02138600 1.372406 0.210239 0.126901 1.339973
2 228 11.83 3.87 8.97 0.22951400 526.96815552 0.04331400 1.482349 0.267979 0.226627 1.448087
2 229 11.86 0.69521942 1.15 0.24571400 575.99288140 0.04821400 1.427460 0.254191 0.197056 1.408137
2 230 11.91 1.15 13.42 0.19661400 535.90936686 -0.06128600 1.403561 0.243337 0.158338 1.336854
2 231 12.15 0.23521942 13.54 0.18461400 560.73501291 -0.02108600 1.382357 0.221941 0.126450 1.344997
2 232 12.17 3.54 9.89 0.34891400 581.57087262 0.16491400 1.464463 0.259809 0.215825 1.452961
2 233 12.2 0.36521942 2.1 0.31471400 609.98137186 0.11011400 1.408575 0.247816 0.181880 1.391604
2 234 12.22 3.47 5.84 0.29861400 598.67830308 0.07811400 1.388543 0.243442 0.155711 1.359904
2 235 12.25 6.05 12.92 0.29741400 601.32676289 -0.02098600 1.373354 0.224074 0.127779 1.342763
2 236 12.26 4.06 10.52 0.48311400 616.43540708 0.24221400 1.449626 0.275001 0.226044 1.433247
2 237 12.84 2.86 7.74 0.32941400 610.03834264 0.14241400 1.398412 0.252976 0.206492 1.389724
2 238 12.84 6.02 15.5 0.32091400 600.27924712 0.14491400 1.402126 0.247642 0.203209 1.393214
2 239 12.84 0.28521942 0.66 0.29041400 593.71420795 0.07781400 1.409226 0.253128 0.204646 1.395962
2 240 9.52 2.48 3.78 -0.05618600 482.64285767 -0.12998600 1.332797 0.159464 0.145525 1.326906
2 241 9.61 5.65 11.56 -0.12018600 456.64436142 -0.15848600 1.346677 0.149821 0.144157 1.354436
2 242 9.62 5.72 11.48 -0.12018600 453.79298139 -0.15878600 1.347126 0.149903 0.143355 1.353390
2 243 9.72 0.30521942 6.53 -0.14328600 403.14798165 -0.19328600 1.296005 0.121903 0.146354 1.314350
2 244 9.74 2.63 3.91 -0.05618600 463.38335263 -0.13018600 1.333028 0.159078 0.145728 1.326524
2 245 9.79 3.35 14.32 -0.15058600 401.67753208 -0.18768600 1.296804 0.122249 0.115156 1.294676
2 246 9.86 0.09521942 6.78 -0.14328600 389.68519379 -0.19388600 1.299060 0.123598 0.144154 1.316559
2 247 9.88 2.12 3.45 -0.03438600 467.43582202 -0.12738600 1.307266 0.145563 0.144800 1.322912
2 248 9.9 3.18 14.51 -0.15058600 389.60824130 -0.18768600 1.295776 0.122552 0.116821 1.294808
2 249 9.9 5.5 11.34 -0.12018600 435.86071275 -0.15868600 1.346823 0.149865 0.143900 1.351596
2 250 9.96 1.89 8.64 -0.14418600 333.97371614 -0.22658600 1.269206 0.130068 0.132247 1.293181
2 251 9.98 2.02 8.44 -0.14418600 338.70610592 -0.22648600 1.270019 0.130854 0.132482 1.293174
2 252 9.98 4.88 0.98 -0.17068600 339.31214580 -0.21538600 1.295260 0.142161 0.141578 1.293881
2 253 10.0 5.23 0.60301995 -0.13558600 346.99575607 -0.18478600 1.272099 0.139330 0.136762 1.282898
2 254 10.05 5.7 5.14 -0.04458600 387.82247645 -0.07588600 1.283008 0.124848 0.127182 1.291300
2 255 10.06 1.98 12.9 -0.08448600 378.69229313 -0.14848600 1.279808 0.140676 0.140788 1.290209
2 256 10.06 2.43 12.91 -0.08448600 380.14244857 -0.14828600 1.279957 0.140478 0.142248 1.291065
2 257 10.06 5.23 5.13 -0.04458600 389.72230657 -0.07648600 1.287762 0.125377 0.129029 1.292979
2 258 10.1 1.62 8.51 -0.18548600 354.53566861 -0.22598600 1.288597 0.140523 0.133877 1.293865
2 259 10.1 2.26 9.61 -0.11448600 345.93458507 -0.18008600 1.314427 0.144604 0.148784 1.330609
2 260 10.11 5.29 1.92 -0.02768600 357.25377599 -0.08688600 1.285673 0.132423 0.138365 1.292895
2 261 10.12 4.64 0.86 -0.17068600 360.99990034 -0.21498600 1.297405 0.142262 0.141333 1.292166
2 262 10.14 2.46 9.65 -0.11458600 348.88130449 -0.18028600 1.313822 0.144878 0.145378 1.330461
2 263 10.14 6.1 0.72301995 -0.13568600 357.50690235 -0.18658600 1.302207 0.124371 0.129895 1.304402
2 264 10.15 3.03 8.65 -0.18638600 340.21011400 -0.23898600 1.343934 0.135023 0.127651 1.327583
2 265 10.16 4.67 0.73301995 -0.17068600 365.41265009 -0.21468600 1.297760 0.142489 0.141502 1.293512
2 266 10.17 1.53 8.51 -0.18548600 362.80746447 -0.22658600 1.289226 0.140470 0.134287 1.295952
2 267 10.17 6.2 0.94 -0.13568600 358.10999025 -0.18678600 1.302855 0.124279 0.131870 1.309285
2 268 10.18 6.24 6.28 -0.14328600 353.35819398 -0.19258600 1.297775 0.122892 0.141334 1.312486
2 269 10.19 5.7 5.29 -0.04458600 367.71050568 -0.07608600 1.282915 0.125161 0.131965 1.290790
2 270 10.2 2.99 14.09 -0.15058600 350.93832031 -0.18758600 1.295501 0.122676 0.116209 1.295326
2 271 10.2 5.25 2.03 -0.02768600 369.53117519 -0.06068600 1.286012 0.132537 0.132833 1.289368
2 272 10.2 5.62 2.02 -0.02768600 370.68813820 -0.06018600 1.285318 0.132082 0.134039 1.293986
2 273 10.2 1.47521942 14.22 -0.17408600 360.34744155 -0.21868600 1.298786 0.147196 0.146294 1.303050
2 274 10.21 2.45 13.09 -0.08448600 356.35490525 -0.16858600 1.279012 0.141041 0.143985 1.298976
2 275 10.21 4.68 6.48 -0.18698600 369.56983037 -0.22608600 1.293029 0.139738 0.134959 1.295259
2 276 10.21 6.16 6.46 -0.14328600 352.52073068 -0.19278600 1.295706 0.122479 0.143339 1.317779
2 277 10.22 2.93 14.23 -0.15058600 351.20235614 -0.18728600 1.295694 0.121851 0.115498 1.295259
2 278 10.24 1.45521942 14.09 -0.17408600 352.62015009 -0.21888600 1.297264 0.146649 0.145813 1.304795
2 279 10.25 5.36 5.35 -0.04458600 360.61273723 -0.07688600 1.285976 0.124791 0.122125 1.292158
2 280 10.27 2.15 9.82 -0.11448600 370.44904977 -0.17998600 1.315300 0.145317 0.149606 1.328043
2 281 10.27 2.45 9.81 -0.11458600 367.68030911 -0.18008600 1.313597 0.144783 0.149097 1.327189
2 282 10.28 2.08 13.16 -0.08448600 345.33688048 -0.14838600 1.281257 0.141003 0.141839 1.288154
2 283 10.37 5.2 6.59 -0.15958600 345.98155320 -0.22508600 1.272724 0.136043 0.134531 1.299345
2 284 10.38 2.05 14.36 -0.13828600 340.54256798 -0.18528600 1.272680 0.142036 0.145676 1.284439
2 285 10.39 4.98 6.33 -0.18698600 342.49807906 -0.22568600 1.292052 0.139936 0.134785 1.295401
2 286 10.4 1.73 13.95 -0.17408600 330.32351282 -0.21868600 1.298314 0.147609 0.146020 1.305048
2 287 10.43 2.31 3.67 -0.07738600 447.65203491 -0.12248600 1.316473 0.145881 0.139440 1.317201
2 288 10.45 3.25 8.33 -0.18628600 371.46087147 -0.23878600 1.344072 0.133729 0.126879 1.329080
2 289 10.46 0.01521942 0.42301995 -0.13568600 397.28244395 -0.18638600 1.302379 0.125244 0.126053 1.308426
2 290 10.51 5.21 11.59 0.09581400 465.05159968 -0.06508600 1.404133 0.212977 0.154433 1.370755
2 291 10.52 3.37 8.46 -0.18638600 375.51914489 -0.23818600 1.344361 0.134314 0.126201 1.327631
2 292 10.58 2.45 3.54 -0.07738600 452.64490137 -0.12208600 1.314149 0.145565 0.140426 1.322651
2 293 10.6 5.82 11.02 0.08021400 453.60050461 -0.10078600 1.388700 0.190181 0.167381 1.380207
2 294 10.62 0.25521942 0.69 -0.13568600 413.19533004 -0.18638600 1.301229 0.125303 0.127781 1.307919
2 295 10.72 2.57 3.47 -0.07738600 463.36186098 -0.12168600 1.315143 0.145829 0.140460 1.323006
3 296 10.6954914316 4.2799541484 10.1101814057 0 0 0 0 0 0 0.000000
3 297 21.5181622918 1.4043256485 5.2300489357 0 0 0 0 0 0 0.000000
