ITEM: TIMESTEP
0
ITEM: NUMBER OF ATOMS
310
ITEM: BOX BOUNDS pp pp pp
0.0 21.61821332
0.0 6.33478058
0.0 15.51698005
ITEM: ATOMS type id x y z SE CD SE_NF BC ZPE ZPE_NF BC_NF
1 1 14.4170347648 0.6254566092 4.6202031124 0 0 0 0 0 0 0.000000
1 2 15.6023330995 0.62498124 2.063863091 0 0 0 0 0 0 0.000000
1 3 14.4562994109 6.3333221135 15.4802076439 0 0 0 0 0 0 0.000000
1 4 16.7849001391 0.6238285479 15.0017091327 0 0 0 0 0 0 0.000000
1 5 14.4086644702 1.9031502529 13.927840941 0 0 0 0 0 0 0.000000
1 6 17.9149788522 0.5989698622 12.4552646856 0 0 0 0 0 0 0.000000
1 7 15.6177575771 6.3293216592 12.9245184528 0 0 0 0 0 0 0.000000
1 8 15.6243834733 1.9030780928 11.3816374935 0 0 0 0 0 0 0.000000
1 9 19.0998157008 0.6418970851 9.8887247519 0 0 0 0 0 0 0.000000
1 10 16.7904017156 6.3292885263 10.3681792202 0 0 0 0 0 0 0.000000
1 11 16.7902859845 1.8963800225 8.8106405001 0 0 0 0 0 0 0.000000
1 12 14.4591173364 1.2641622416 9.2723390393 0 0 0 0 0 0 0.000000
1 13 14.4744077321 3.1564094891 7.7138955172 0 0 0 0 0 0 0.000000
1 14 20.3227516557 0.5446864964 7.5695302154 0 0 0 0 0 0 0.000000
1 15 17.9565570202 6.3332349106 7.7845621538 0 0 0 0 0 0 0.000000
1 16 17.9619852662 1.8761716972 6.2361909674 0 0 0 0 0 0 0.000000
1 17 15.6134833008 1.2550483774 6.6988425511 0 0 0 0 0 0 0.000000
1 18 15.6167360431 3.1644360305 5.1593155197 0 0 0 0 0 0 0.000000
1 19 19.2809044286 0.0422548801 5.2243589344 0 0 0 0 0 0 0.000000
1 20 19.2547565863 1.8774027369 3.6083053126 0 0 0 0 0 0 0.000000
1 21 16.8098048143 1.2556748759 4.1467003194 0 0 0 0 0 0 0.000000
1 22 16.7721359495 3.1591449141 2.5936024081 0 0 0 0 0 0 0.000000
1 23 14.4479584132 2.5373908113 3.0726604209 0 0 0 0 0 0 0.000000
1 24 14.4481602104 4.4303716661 1.5092823498 0 0 0 0 0 0 0.000000
1 25 20.4184381366 6.1696178729 2.5841721198 0 0 0 0 0 0 0.000000
1 26 20.0666299334 1.793689475 1.0945086372 0 0 0 0 0 0 0.000000
1 27 17.8988951886 1.2339954925 1.6013778888 0 0 0 0 0 0 0.000000
1 28 17.9351772465 3.1581787278 0.0186589364 0 0 0 0 0 0 0.000000
1 29 15.6257507072 2.5320713749 0.4927938281 0 0 0 0 0 0 0.000000
1 30 15.6041180648 4.4185104386 14.4582450953 0 0 0 0 0 0 0.000000
1 31 19.1644952437 1.2893931005 14.5238566963 0 0 0 0 0 0 0.000000
1 32 19.3136642111 3.2062357865 13.0082046393 0 0 0 0 0 0 0.000000
1 33 16.8178384838 2.5335303606 13.4571244995 0 0 0 0 0 0 0.000000
1 34 16.8202676871 4.4197447623 11.9170620327 0 0 0 0 0 0 0.000000
1 35 14.4035438909 3.7843096806 12.3802239156 0 0 0 0 0 0 0.000000
1 36 14.4594879445 5.6968519292 10.8467468734 0 0 0 0 0 0 0.000000
1 37 20.139068369 1.1448858415 12.0831955212 0 0 0 0 0 0 0.000000
1 38 20.4495566574 3.0206556758 10.3568665225 0 0 0 0 0 0 0.000000
1 39 18.0066990923 2.5262146654 10.9351894097 0 0 0 0 0 0 0.000000
1 40 17.9011409181 4.3982243017 9.3794104363 0 0 0 0 0 0 0.000000
1 41 15.6133908673 3.7861019934 9.831320298 0 0 0 0 0 0 0.000000
1 42 15.680424425 5.7078803605 8.2495239854 0 0 0 0 0 0 0.000000
1 43 19.0997126271 2.5296240142 8.3282983404 0 0 0 0 0 0 0.000000
1 44 19.1677820165 4.4590233928 6.7435425027 0 0 0 0 0 0 0.000000
1 45 16.7956119496 3.7921815978 7.2435394669 0 0 0 0 0 0 0.000000
1 46 16.8189760468 5.7045209468 5.6950701012 0 0 0 0 0 0 0.000000
1 47 14.4214628888 5.0717968438 6.1630087235 0 0 0 0 0 0 0.000000
1 48 20.1999845941 2.5394555528 5.7788641732 0 0 0 0 0 0 0.000000
1 49 20.1132845832 4.3029524632 4.2790393387 0 0 0 0 0 0 0.000000
1 50 17.8971633778 3.7617863972 4.6849355923 0 0 0 0 0 0 0.000000
1 51 17.993197268 5.6888755621 3.154362538 0 0 0 0 0 0 0.000000
1 52 15.6235185793 5.0727120499 3.6171897198 0 0 0 0 0 0 0.000000
1 53 19.0807601445 3.7858446815 2.0890630464 0 0 0 0 0 0 0.000000
1 54 19.0941223202 5.6922583175 0.5572869404 0 0 0 0 0 0 0.000000
1 55 16.7755017403 5.0599064365 1.0413171752 0 0 0 0 0 0 0.000000
1 56 20.3549443554 3.7080716517 15.3279235982 0 0 0 0 0 0 0.000000
1 57 20.2124182485 5.7281202615 13.557464286 0 0 0 0 0 0 0.000000
1 58 17.9639127507 5.0409882952 13.9940177392 0 0 0 0 0 0 0.000000
1 59 19.2950757446 5.0474520013 11.3870067582 0 0 0 0 0 0 0.000000
1 60 20.026355104 4.9819249344 8.8576443038 0 0 0 0 0 0 0.000000
1 61 11.0349278573 0.6038151826 12.2952530021 0 0 0 0 0 0 0.000000
1 62 12.1500418127 0.5833367848 9.7678524923 0 0 0 0 0 0 0.000000
1 63 13.2396387423 0.6253507117 7.1443114041 0 0 0 0 0 0 0.000000
1 64 10.7166144651 0.2547905008 7.7852843844 0 0 0 0 0 0 0.000000
1 65 11.1012302962 2.0179741363 5.9737457653 0 0 0 0 0 0 0.000000
1 66 11.9348765291 6.2956012717 5.0774606885 0 0 0 0 0 0 0.000000
1 67 12.0772002982 1.8807342305 3.5575785959 0 0 0 0 0 0 0.000000
1 68 13.299163155 0.0029260702 2.5426422422 0 0 0 0 0 0 0.000000
1 69 13.3287328599 1.9257913996 0.9523037917 0 0 0 0 0 0 0.000000
1 70 11.1716703114 1.3612426432 1.4719919942 0 0 0 0 0 0 0.000000
1 71 10.7959093467 3.3243677187 15.499066707 0 0 0 0 0 0 0.000000
1 72 11.9472275032 1.2806888034 14.4633350062 0 0 0 0 0 0 0.000000
1 73 11.8805476909 3.0989616951 12.835144198 0 0 0 0 0 0 0.000000
1 74 13.2691324491 1.2802390532 11.8397390516 0 0 0 0 0 0 0.000000
1 75 13.2676298857 3.1575214826 10.28909819 0 0 0 0 0 0 0.000000
1 76 10.7555576461 2.5134616459 10.3185841763 0 0 0 0 0 0 0.000000
1 77 12.1336875518 2.4951996569 8.179418955 0 0 0 0 0 0 0.000000
1 78 11.9274587564 4.4800093017 6.7006553467 0 0 0 0 0 0 0.000000
1 79 13.3243894357 2.5701534615 5.6342189532 0 0 0 0 0 0 0.000000
1 80 13.2750645944 4.4554117855 4.0853187593 0 0 0 0 0 0 0.000000
1 81 11.0297930091 3.7887370647 4.5249908918 0 0 0 0 0 0 0.000000
1 82 10.8895449214 5.7989043691 2.7861105509 0 0 0 0 0 0 0.000000
1 83 12.1301138592 3.8093760768 1.9987199943 0 0 0 0 0 0 0.000000
1 84 12.1427908653 5.7085671833 0.4637272411 0 0 0 0 0 0 0.000000
1 85 13.2211902441 3.8024012671 14.9144462741 0 0 0 0 0 0 0.000000
1 86 13.3177592045 5.7294949635 13.4056436625 0 0 0 0 0 0 0.000000
1 87 11.0676504083 5.1967917654 13.7773513594 0 0 0 0 0 0 0.000000
1 88 12.0775945513 5.0195551368 11.3803448099 0 0 0 0 0 0 0.000000
1 89 13.4733779564 5.0978153223 8.6891115823 0 0 0 0 0 0 0.000000
1 90 0.4644303116 1.755468277 1.5085609349 0 0 0 0 0 0 0.000000
1 91 21.538805611 6.1067997986 0.0333205436 0 0 0 0 0 0 0.000000
1 92 21.6056203624 0.5891171849 10.4134079741 0 0 0 0 0 0 0.000000
1 93 1.3199214988 0.6471020756 8.2771191605 0 0 0 0 0 0 0.000000
1 94 21.5392719018 2.9851955042 7.852024163 0 0 0 0 0 0 0.000000
1 95 2.5856398881 0.5865640075 5.645184854 0 0 0 0 0 0 0.000000
1 96 1.0623945044 3.3016434577 5.0645916424 0 0 0 0 0 0 0.000000
1 97 0.2006065329 5.7444218915 4.5354620355 0 0 0 0 0 0 0.000000
1 98 3.6431043799 0.6430591607 3.0918159166 0 0 0 0 0 0 0.000000
1 99 1.2745358429 1.330447627 3.631655636 0 0 0 0 0 0 0.000000
1 100 2.4517612453 3.1733264278 2.5583066293 0 0 0 0 0 0 0.000000
1 101 21.590768788 3.7936195891 2.5814216298 0 0 0 0 0 0 0.000000
1 102 1.3301221746 5.7493961752 2.0271429467 0 0 0 0 0 0 0.000000
1 103 4.8440537229 0.6225583705 0.5183017557 0 0 0 0 0 0 0.000000
1 104 2.5802340466 1.2356879216 0.9571437131 0 0 0 0 0 0 0.000000
1 105 3.6393830394 3.169536893 15.5035904565 0 0 0 0 0 0 0.000000
1 106 1.300977411 3.8111346702 0.4653183447 0 0 0 0 0 0 0.000000
1 107 1.1020528265 1.8592782214 14.5109480816 0 0 0 0 0 0 0.000000
1 108 0.2992789768 4.3160523783 13.7852393296 0 0 0 0 0 0 0.000000
1 109 1.0829977638 0.0603889916 12.8642629122 0 0 0 0 0 0 0.000000
1 110 2.4485466134 1.883461379 11.8847633771 0 0 0 0 0 0 0.000000
1 111 0.202353259 2.5698325252 12.3359590254 0 0 0 0 0 0 0.000000
1 112 1.2540213037 4.4662063836 11.3687196511 0 0 0 0 0 0 0.000000
1 113 2.4629226236 0.0024315973 10.3494868421 0 0 0 0 0 0 0.000000
1 114 3.6216400264 1.9011830386 9.3038319453 0 0 0 0 0 0 0.000000
1 115 1.3285558415 2.5535231617 9.8188625169 0 0 0 0 0 0 0.000000
1 116 2.5305172732 4.4031505895 8.7339159351 0 0 0 0 0 0 0.000000
1 117 0.4226079314 4.9525528793 9.2779329767 0 0 0 0 0 0 0.000000
1 118 3.6338387886 -0.0021548212 7.7494712945 0 0 0 0 0 0 0.000000
1 119 4.7843680235 1.9144771087 6.7182078189 0 0 0 0 0 0 0.000000
1 120 2.4019099477 2.543264461 7.1853814674 0 0 0 0 0 0 0.000000
1 121 3.590488123 4.4280268472 6.1860918971 0 0 0 0 0 0 0.000000
1 122 1.1309109324 5.0643017706 6.7445863754 0 0 0 0 0 0 0.000000
1 123 4.8338597424 1.5437724882e-04 5.1689361302 0 0 0 0 0 0 0.000000
1 124 6.0203679647 1.9158806166 4.1657086853 0 0 0 0 0 0 0.000000
1 125 3.600730453 2.5563369117 4.6368031288 0 0 0 0 0 0 0.000000
1 126 4.8177254032 4.4326493709 3.6304163594 0 0 0 0 0 0 0.000000
1 127 2.4631294624 5.0628074571 4.0895307446 0 0 0 0 0 0 0.000000
1 128 5.9845753257 0.0043301443 2.6164680071 0 0 0 0 0 0 0.000000
1 129 4.7809109561 2.55173364 2.0856244573 0 0 0 0 0 0 0.000000
1 130 5.9830090423 4.4401843266 1.0697970297 0 0 0 0 0 0 0.000000
1 131 3.6374217814 5.0720367463 1.5308033628 0 0 0 0 0 0 0.000000
1 132 2.4092516449 5.7000968067 14.9391783642 0 0 0 0 0 0 0.000000
1 133 6.0138293002 0.6194198654 13.4909970477 0 0 0 0 0 0 0.000000
1 134 3.5961350942 1.2577722552 13.9588350736 0 0 0 0 0 0 0.000000
1 135 4.8007120699 3.1637875111 12.9509702256 0 0 0 0 0 0 0.000000
1 136 2.5098588285 3.7623248899 13.4283017568 0 0 0 0 0 0 0.000000
1 137 3.5906214045 5.7088755405 12.4209984953 0 0 0 0 0 0 0.000000
1 138 4.8024944856 1.2542354058 11.4156558552 0 0 0 0 0 0 0.000000
1 139 5.9353534533 3.1652465434 10.3927011188 0 0 0 0 0 0 0.000000
1 140 3.6242680831 3.8005291089 10.8735779837 0 0 0 0 0 0 0.000000
1 141 4.7583822945 5.7087010744 9.8608537059 0 0 0 0 0 0 0.000000
1 142 5.942889938 1.2670388185 8.8344611459 0 0 0 0 0 0 0.000000
1 143 4.7996269385 3.7972077142 8.2757984567 0 0 0 0 0 0 0.000000
1 144 5.9539762679 5.7126595441 7.2581182726 0 0 0 0 0 0 0.000000
1 145 6.0032100888 3.7996119636 5.7099755426 0 0 0 0 0 0 0.000000
1 146 5.9810512838 2.5327617847 15.0286955683 0 0 0 0 0 0 0.000000
1 147 4.800584857 5.072366245 14.4886703841 0 0 0 0 0 0 0.000000
1 148 5.9937155304 5.0756525856 11.9471167645 0 0 0 0 0 0 0.000000
1 149 7.0415250722 1.9389393984 1.6484621182 0 0 0 0 0 0 0.000000
1 150 7.173619223 6.3272782754 0.0452019514 0 0 0 0 0 0 0.000000
1 151 7.1757784978 0.6329836648 10.9574024923 0 0 0 0 0 0 0.000000
1 152 8.2674842513 0.6414752051 8.3451252244 0 0 0 0 0 0 0.000000
1 153 7.1097530355 3.1720016319 7.8038547648 0 0 0 0 0 0 0.000000
1 154 9.3895127981 0.5928033282 5.803610688 0 0 0 0 0 0 0.000000
1 155 7.1458262623 1.2999173759 6.2516615402 0 0 0 0 0 0 0.000000
1 156 8.5087736604 3.1320296018 5.2550613494 0 0 0 0 0 0 0.000000
1 157 7.1136024793 5.7474729251 4.7016217306 0 0 0 0 0 0 0.000000
1 158 8.5206992478 1.3194546817 3.6168409567 0 0 0 0 0 0 0.000000
1 159 9.6964522469 3.3949424486 2.5523501358 0 0 0 0 0 0 0.000000
1 160 7.2028968783 3.8132262853 3.1838705477 0 0 0 0 0 0 0.000000
1 161 8.3224900164 5.6950308119 2.1416671398 0 0 0 0 0 0 0.000000
1 162 9.1481895249 1.4055696356 1.0964400736 0 0 0 0 0 0 0.000000
1 163 8.2841940349 3.7609670792 0.5719384555 0 0 0 0 0 0 0.000000
1 164 8.3561961585 1.8564227682 14.5023225542 0 0 0 0 0 0 0.000000
1 165 7.154631957 4.4458626748 14.024579343 0 0 0 0 0 0 0.000000
1 166 8.5274971835 6.2716159097 13.0419689735 0 0 0 0 0 0 0.000000
1 167 9.3368830629 2.0196509459 12.0912275576 0 0 0 0 0 0 0.000000
1 168 7.0931844989 2.5538420623 12.4727741012 0 0 0 0 0 0 0.000000
1 169 8.4368039106 4.4460162533 11.417199749 0 0 0 0 0 0 0.000000
1 170 9.6065073161 0.1641057941 10.371543844 0 0 0 0 0 0 0.000000
1 171 8.2325035966 2.5271896892 9.9058667303 0 0 0 0 0 0 0.000000
1 172 9.149161949 4.5500803313 8.933186935 0 0 0 0 0 0 0.000000
1 173 7.0120608241 5.1019145797 9.3960454382 0 0 0 0 0 0 0.000000
1 174 9.5594596491 2.6297006477 7.6007809421 0 0 0 0 0 0 0.000000
1 175 8.3098442017 5.0493264219 6.7732030724 0 0 0 0 0 0 0.000000
1 176 9.3088580427 5.1845361943 4.3245793862 0 0 0 0 0 0 0.000000
1 177 9.657967614 5.6973005263 0.0216606013 0 0 0 0 0 0 0.000000
1 178 9.3863303369 3.7615674142 13.5671257724 0 0 0 0 0 0 0.000000
2 179 7.0 0.69521942 3.69 0.28681400 598.87926623 -0.05298600 1.383938 0.248933 0.124756 1.320151
2 180 7.02 6.25 12.41 0.38821400 597.39282075 0.04221400 1.401158 0.250030 0.190735 1.391485
2 181 7.29 1.02521942 4.65 0.29901400 602.54650558 0.08251400 1.387453 0.253086 0.182030 1.376736
2 182 7.3 4.12 4.78 0.39291400 612.17641973 0.09771400 1.399771 0.246594 0.184308 1.378541
2 183 7.32 0.92521942 12.55 0.27361400 605.49520896 0.08681400 1.395298 0.242420 0.183993 1.381425
2 184 7.5 4.39 5.51 0.30891400 619.04178198 0.11061400 1.388904 0.246693 0.177447 1.382851
2 185 7.5 5.68 11.91 0.31811400 593.99922265 0.08131400 1.407525 0.247652 0.189110 1.392720
2 186 7.52 1.19521942 13.26 0.33471400 619.18156368 0.08711400 1.386377 0.238873 0.180725 1.381835
2 187 7.53 1.9 4.78 0.28431400 595.73533593 -0.03448600 1.395514 0.246073 0.139542 1.317309
2 188 7.53 2.51 4.1 0.28081400 594.23204600 0.09131400 1.415601 0.250926 0.207312 1.398449
2 189 8.09 6.25 9.8 0.27741400 623.26500290 0.04181400 1.392697 0.233201 0.173964 1.392621
2 190 8.14 5.73 10.42 0.22581400 602.79660154 0.04361400 1.401757 0.227224 0.176642 1.395822
2 191 8.15 3.07 2.06 0.27861400 616.23667210 0.06011400 1.376998 0.189818 0.159838 1.377975
2 192 8.16 2.49 6.73 0.37971400 584.22221663 -0.00108600 1.387196 0.233695 0.130977 1.348013
2 193 8.17 5.09 15.13 0.12991400 587.48239167 -0.07078600 1.372921 0.202659 0.141355 1.346782
2 194 8.22 2.61 2.61 0.21861400 588.81048367 0.06101400 1.384405 0.219456 0.172094 1.383833
2 195 8.29 5.56 14.55 0.12991400 548.35958154 -0.02268600 1.373740 0.208695 0.129954 1.340899
2 196 8.49 2.3 2.3 0.21871400 615.39436181 0.08021400 1.386298 0.221785 0.169869 1.382509
2 197 8.53 2.95 3.62 0.20231400 558.30858620 0.02281400 1.416584 0.253863 0.199005 1.389875
2 198 8.54 0.21521942 14.66 0.26851400 520.62788280 -0.04678600 1.384232 0.239181 0.157353 1.335550
2 199 8.61 1.45 6.96 0.28731400 603.19463491 -0.00058600 1.378708 0.234267 0.134170 1.347645
2 200 8.63 4.66 14.74 0.14941400 581.94471892 -0.07968600 1.375047 0.193089 0.130429 1.341484
2 201 8.65 1.94 6.39 0.30981400 585.96456676 -0.00148600 1.386429 0.230392 0.132748 1.349321
2 202 8.68 5.12 14.27 0.19481400 553.65923056 -0.02258600 1.375008 0.192552 0.139769 1.348198
2 203 9.28 5.78 7.86 0.28701400 539.80721714 -0.07068600 1.393977 0.235672 0.178523 1.375931
2 204 9.36 3.17 10.91 0.08441400 498.19232490 -0.11038600 1.379714 0.218293 0.182842 1.354891
2 205 9.4 0.00521942 3.18 0.21911400 522.25950930 -0.03458600 1.372566 0.228769 0.186617 1.346686
2 206 9.46 3.62 10.33 -0.00358600 461.10554864 -0.11458600 1.364010 0.202367 0.178166 1.344813
2 207 9.49 4.66 1.4 0.00381400 495.61263165 -0.11088600 1.330709 0.155637 0.144457 1.322384
2 208 9.55 0.50521942 2.5 0.12331400 483.08624139 -0.08028600 1.326654 0.170206 0.147686 1.318846
2 209 9.64 3.0 9.2 0.15771400 534.72913531 -0.10848600 1.395123 0.242392 0.169466 1.335936
2 210 9.8 6.27 1.59 0.34141400 540.66355225 -0.09708600 1.356587 0.167212 0.137873 1.306231
2 211 9.86 4.31 1.07301995 0.00581400 481.25829403 -0.11008600 1.324236 0.163923 0.140367 1.319141
2 212 9.91 1.67 2.63 0.03901400 429.10928559 -0.09658600 1.288707 0.131768 0.141511 1.305106
2 213 10.09 0.08521942 1.45 0.19701400 553.34393849 -0.05788600 1.360194 0.217467 0.136696 1.304219
2 214 10.26 3.31 8.94 0.22911400 526.89476875 -0.06918600 1.354822 0.202276 0.153430 1.336231
2 215 10.56 1.12 9.28 0.00081400 481.38047856 -0.13028600 1.336832 0.175047 0.146257 1.336302
2 216 10.68 3.09 8.75 0.22901400 521.27422313 -0.06868600 1.354973 0.201703 0.152827 1.335969
2 217 10.73 6.13 1.18 0.31011400 546.33199903 -0.05518600 1.370445 0.229229 0.124408 1.301543
2 218 10.92 3.64 7.8 0.21911400 456.76610287 -0.04438600 1.328080 0.170474 0.136022 1.311683
2 219 10.93 0.47521942 0.04 0.08741400 483.76572331 -0.00998600 1.347134 0.184996 0.160277 1.318626
2 220 10.95 1.5 8.94 -0.00368600 501.60329309 -0.12698600 1.356822 0.169617 0.144062 1.336373
2 221 11.04 3.16 7.14 0.16051400 504.27872693 -0.09918600 1.387232 0.235323 0.183459 1.340873
2 222 11.04 0.00521942 14.94 0.17871400 505.79281289 -0.05838600 1.369518 0.221916 0.179869 1.326777
2 223 11.08 5.76 10.29 0.23391400 508.24387404 0.01591400 1.391136 0.252027 0.205133 1.370791
2 224 11.71 0.61521942 6.55 0.28881400 595.91309631 -0.02578600 1.401473 0.243125 0.199905 1.391888
2 225 11.74 1.96 11.58 0.12371400 548.33093361 -0.06958600 1.377968 0.191709 0.137069 1.348830
2 226 11.78 5.11 3.96 0.33341400 611.61510073 0.00811400 1.393988 0.242984 0.131754 1.345581
2 227 11.79 1.48 11.11 0.12371400 575.18874116 -0.06898600 1.377409 0.190071 0.139194 1.350871
2 228 11.88 3.37 11.19 0.06271400 494.88142700 -0.09388600 1.394920 0.233736 0.185322 1.366911
2 229 11.88 6.12 6.71 0.13511400 541.76888716 -0.02588600 1.432434 0.245570 0.201228 1.382536
2 230 12.01 5.54 7.99 0.11191400 574.14132409 0.01741400 1.380345 0.204691 0.172119 1.378175
2 231 12.03 5.88 8.48 0.11191400 600.31598511 0.01771400 1.381390 0.205352 0.173799 1.375436
2 232 12.13 2.41 11.3 0.08811400 535.03007866 -0.07018600 1.378747 0.205480 0.133831 1.350711
2 233 12.2 5.76 7.77 0.11191400 562.20111275 0.01751400 1.382396 0.205103 0.173629 1.375659
2 234 12.24 1.93 10.71 0.08811400 576.96344133 -0.07028600 1.378821 0.205471 0.138692 1.346803
2 235 12.25 2.57 15.41 0.29741400 608.71322230 0.10371400 1.404174 0.240327 0.169442 1.388135
2 236 12.26 6.18 8.26 0.11191400 584.89717905 0.01811400 1.380794 0.203485 0.172090 1.373366
2 237 12.28 5.65 3.61 0.32161400 609.76374687 0.00791400 1.390564 0.244755 0.131153 1.344317
2 238 12.89 2.51 13.96 0.27391400 592.65771896 0.09081400 1.412424 0.248897 0.188321 1.387750
2 239 12.89 4.35 12.62 0.31111400 616.15608757 0.08431400 1.390860 0.238594 0.180340 1.381816
2 240 12.9 1.91 13.29 0.29821400 600.24680809 0.12191400 1.399534 0.246150 0.192774 1.387469
2 241 12.91 1.22521942 4.79 0.50491400 619.40790582 0.12971400 1.394958 0.244699 0.180189 1.381000
2 242 12.98 3.83 7.77 0.30331400 604.56404456 -0.15598600 1.376917 0.242217 0.131614 1.314382
2 243 12.99 3.29 7.05 0.30971400 608.24945944 -0.15138600 1.389351 0.243817 0.129812 1.312855
2 244 12.99 5.58 10.16 0.46221400 627.11850145 0.17801400 1.385417 0.252507 0.207697 1.372449
2 245 9.64 1.59 9.14 -0.10008600 463.03321543 -0.16118600 1.328968 0.143489 0.129358 1.320502
2 246 9.72 1.53 9.1 -0.10008600 457.40880124 -0.16128600 1.330311 0.144023 0.129315 1.318639
2 247 9.79 1.98 4.71 -0.14618600 398.37668076 -0.18968600 1.299218 0.122236 0.126797 1.299270
2 248 9.79 2.5 4.13 -0.14638600 396.79209555 -0.18878600 1.298770 0.117963 0.135402 1.303066
2 249 9.82 5.12 12.41 -0.16888600 382.13746169 -0.20668600 1.294066 0.120786 0.126307 1.307265
2 250 9.84 4.3 5.92 -0.16718600 355.99789700 -0.21388600 1.281183 0.145057 0.148236 1.294124
2 251 9.84 1.11521942 13.64 -0.12818600 362.79202009 -0.15488600 1.279342 0.151702 0.152730 1.293230
2 252 9.85 4.91 1.62 0.00381400 459.77273134 -0.10978600 1.331369 0.169413 0.132457 1.307406
2 253 9.85 5.53 11.95 -0.16948600 374.99456547 -0.18288600 1.296590 0.107760 0.105952 1.298794
2 254 9.9 0.90521942 2.6 -0.04688600 430.95087121 -0.09598600 1.285655 0.133323 0.142086 1.297980
2 255 9.91 1.43 9.01 -0.10008600 449.52136464 -0.16048600 1.327628 0.144463 0.129894 1.322512
2 256 9.96 2.21 4.46 -0.14638600 377.45396343 -0.18948600 1.297185 0.111806 0.130372 1.301411
2 257 9.97 5.32 12.18 -0.16948600 363.64259642 -0.20698600 1.295644 0.107552 0.121268 1.301005
2 258 10.0 4.07 6.24 -0.18628600 334.26381559 -0.23178600 1.304629 0.144166 0.136767 1.306370
2 259 10.01 0.76521942 14.12 -0.16978600 331.98770425 -0.23688600 1.297807 0.144817 0.141369 1.300852
2 260 10.03 0.84521942 14.02 -0.16978600 333.11460899 -0.25868600 1.300945 0.142535 0.142733 1.304275
2 261 10.06 4.7 10.54 -0.03508600 355.57934937 -0.06918600 1.294686 0.155496 0.157846 1.303428
2 262 10.07 4.24 10.53 -0.03508600 353.26701252 -0.06988600 1.295777 0.155688 0.156271 1.307819
2 263 10.07 4.45 7.24 -0.00958600 333.37948930 -0.11798600 1.281622 0.129027 0.151020 1.299963
2 264 10.08 4.6 6.03 -0.16718600 331.85056641 -0.21398600 1.279214 0.146823 0.148364 1.296073
2 265 10.08 1.14521942 14.95698005 -0.02968600 339.59582741 -0.10498600 1.289442 0.146052 0.146939 1.303481
2 266 10.09 3.55 6.09 -0.18628600 387.98183455 -0.22958600 1.303859 0.144068 0.138006 1.305382
2 267 10.1 0.49521942 4.1 -0.15668600 385.11466245 -0.21478600 1.296880 0.144704 0.139496 1.301029
2 268 10.12 1.47 13.78 -0.12818600 337.33166260 -0.17388600 1.280289 0.152164 0.151831 1.289993
2 269 10.13 4.82 7.31 -0.09508600 339.47597969 -0.14068600 1.295070 0.128521 0.136522 1.304653
2 270 10.13 0.58521942 14.05 -0.16988600 346.99729986 -0.20928600 1.299137 0.138962 0.138891 1.305128
2 271 10.16 1.6 15.02 -0.02968600 349.91140044 -0.10528600 1.288538 0.147409 0.146643 1.305206
2 272 10.16 5.13 6.1 -0.17808600 337.49592736 -0.21488600 1.289949 0.117957 0.124546 1.310463
2 273 10.17 5.26 11.77 -0.16948600 334.98975098 -0.20718600 1.296145 0.106588 0.124578 1.302093
2 274 10.19 5.16 11.99 -0.16948600 336.88451898 -0.20678600 1.296295 0.107097 0.124956 1.303587
2 275 10.19 5.29 6.44 -0.15358600 335.74356500 -0.18198600 1.303900 0.122000 0.111122 1.307698
2 276 10.21 1.99 13.85 -0.15228600 348.71942554 -0.24458600 1.299797 0.109141 0.129692 1.310050
2 277 10.21 2.16 3.92 -0.14628600 352.58255178 -0.18868600 1.294754 0.117874 0.130706 1.303456
2 278 10.23 2.1 14.1 -0.15268600 348.40444868 -0.19578600 1.307602 0.123047 0.127204 1.307616
2 279 10.24 2.02 4.21 -0.14638600 349.52604951 -0.18918600 1.299441 0.116394 0.128874 1.301686
2 280 10.25 4.71 10.79 -0.03508600 325.78432885 -0.06928600 1.296246 0.155870 0.157751 1.299993
2 281 10.27 1.69 3.08 -0.04688600 362.56460397 -0.08368600 1.286025 0.155874 0.131817 1.294425
2 282 10.27 4.65 12.06 -0.14768600 325.16277249 -0.20758600 1.286245 0.153620 0.153656 1.294783
2 283 10.29 3.68 6.24 -0.18628600 369.07177212 -0.23068600 1.304451 0.142864 0.138052 1.306637
2 284 10.3 3.72 11.81 -0.19848600 338.36681361 -0.28188600 1.305259 0.142678 0.140738 1.308337
2 285 10.31 4.35 10.84 -0.03508600 318.64122252 -0.06998600 1.296309 0.155175 0.155485 1.305574
2 286 10.32 3.83 11.78 -0.19838600 328.26795836 -0.28178600 1.305233 0.141117 0.140806 1.308459
2 287 10.34 1.37 4.29 -0.14478600 342.23906302 -0.18948600 1.278147 0.143527 0.147501 1.293384
2 288 10.34 0.33521942 4.28 -0.15658600 406.78851099 -0.21468600 1.297530 0.146690 0.139026 1.298856
2 289 10.35 1.22521942 3.16 -0.04688600 354.40874752 -0.12878600 1.286125 0.137821 0.134474 1.296096
2 290 10.37 3.99 11.81 -0.19848600 320.16931642 -0.23408600 1.304756 0.141893 0.139570 1.307508
2 291 10.38 3.93 11.73 -0.19838600 319.17312536 -0.23458600 1.305259 0.142654 0.138952 1.310233
2 292 10.39 4.24 7.65 -0.07528600 374.82620220 -0.11778600 1.280704 0.130337 0.150252 1.302126
2 293 10.39 4.8 7.62 -0.09508600 371.95899887 -0.14128600 1.294411 0.129564 0.135823 1.304183
2 294 10.41 0.99521942 15.38698005 -0.02968600 395.64618060 -0.10508600 1.289235 0.148779 0.147555 1.305085
2 295 10.42 1.57 15.37 -0.02968600 397.19060757 -0.10458600 1.287590 0.142794 0.147902 1.307030
2 296 10.43 2.15 13.66 -0.15218600 374.25719002 -0.19608600 1.298374 0.110308 0.128927 1.308606
2 297 10.43 0.87521942 4.12 -0.15658600 349.89906408 -0.25428600 1.294480 0.143636 0.138473 1.297953
2 298 10.46 5.34 5.83 -0.17808600 368.16128015 -0.21458600 1.291078 0.117802 0.124633 1.307569
2 299 10.53 4.6 1.35301995 -0.08118600 447.74374022 -0.12508600 1.313251 0.136012 0.130217 1.315494
2 300 10.56 2.38 13.92 -0.15268600 386.87221606 -0.19598600 1.308300 0.124629 0.127553 1.307606
2 301 10.56 1.08521942 4.4 -0.14468600 365.14881604 -0.18958600 1.277102 0.140265 0.148038 1.293479
2 302 10.57 1.95 13.44 -0.15268600 390.29894734 -0.19508600 1.307972 0.125458 0.130477 1.310687
2 303 10.57 4.28 12.21 -0.14768600 351.29048761 -0.19388600 1.285048 0.153818 0.155203 1.294626
2 304 10.58 5.17 5.64 -0.17808600 389.90070563 -0.21378600 1.290466 0.118651 0.126585 1.303253
2 305 10.59 4.66 1.29301995 -0.08118600 449.48907253 -0.12438600 1.314267 0.139486 0.131132 1.317725
2 306 10.61 1.75 8.72 -0.00378600 466.55685076 -0.12858600 1.357101 0.166888 0.144734 1.338811
2 307 10.65 5.68 6.21 -0.15358600 386.32131744 -0.18188600 1.303943 0.119862 0.123275 1.310680
2 308 10.73 4.73 1.18301995 0.01101400 458.61695062 -0.12338600 1.313188 0.137476 0.132253 1.320151
3 309 11.322245988 4.5732337678 9.1787160734 0 0 0 0 0 0 0.000000
3 310 0.4052171926 1.1754660152 6.0784306651 0 0 0 0 0 0 0.000000
