ITEM: TIMESTEP
0
ITEM: NUMBER OF ATOMS
303
ITEM: BOX BOUNDS pp pp pp
0.0 21.61821332
0.0 6.33478058
0.0 15.51698005
ITEM: ATOMS type id x y z SE CD SE_NF BC ZPE ZPE_NF BC_NF
1 1 14.4204297319 0.6055443059 4.6459816361 0 0 0 0 0 0 0.000000
1 2 15.6032308121 0.6069138678 2.0884196295 0 0 0 0 0 0 0.000000
1 3 14.4506498912 6.3181173774 15.5053060151 0 0 0 0 0 0 0.000000
1 4 16.7781260186 0.6028255038 15.0235341913 0 0 0 0 0 0 0.000000
1 5 14.4024508176 1.8864066303 13.9469754434 0 0 0 0 0 0 0.000000
1 6 17.910027349 0.5784731093 12.4687807207 0 0 0 0 0 0 0.000000
1 7 15.6106130072 6.3112248148 12.9416417302 0 0 0 0 0 0 0.000000
1 8 15.6184721533 1.8835086004 11.399497936 0 0 0 0 0 0 0.000000
1 9 19.0962180347 0.6192535968 9.9064752688 0 0 0 0 0 0 0.000000
1 10 16.7802819552 6.3095363583 10.3864364051 0 0 0 0 0 0 0.000000
1 11 16.7845547918 1.8754786443 8.8317089324 0 0 0 0 0 0 0.000000
1 12 14.4550876447 1.2444122943 9.293641289 0 0 0 0 0 0 0.000000
1 13 14.4631527498 3.143223289 7.7417843673 0 0 0 0 0 0 0.000000
1 14 20.3655864636 0.5235947704 7.6081803724 0 0 0 0 0 0 0.000000
1 15 17.9530441149 6.3139613031 7.8065450095 0 0 0 0 0 0 0.000000
1 16 17.960368069 1.8513653721 6.258625542 0 0 0 0 0 0 0.000000
1 17 15.6145729456 1.2342762206 6.7225502026 0 0 0 0 0 0 0.000000
1 18 15.6248734859 3.1441002955 5.1814435491 0 0 0 0 0 0 0.000000
1 19 19.3176529631 0.0157842444 5.2605622819 0 0 0 0 0 0 0.000000
1 20 19.2932685798 1.8527722502 3.6413991009 0 0 0 0 0 0 0.000000
1 21 16.8230653128 1.2329591043 4.1701666528 0 0 0 0 0 0 0.000000
1 22 16.7783159973 3.1381127376 2.6207482732 0 0 0 0 0 0 0.000000
1 23 14.4452426894 2.5182430242 3.096710701 0 0 0 0 0 0 0.000000
1 24 14.446672143 4.4123278065 1.5329983967 0 0 0 0 0 0 0.000000
1 25 20.4233805273 6.1507161515 2.5911809254 0 0 0 0 0 0 0.000000
1 26 20.0534204505 1.774017774 1.1105987843 0 0 0 0 0 0 0.000000
1 27 17.9007127795 1.2113593645 1.6282065437 0 0 0 0 0 0 0.000000
1 28 17.9315715875 3.1369337042 0.0387984177 0 0 0 0 0 0 0.000000
1 29 15.6217993094 2.5138231175 0.5184818828 0 0 0 0 0 0 0.000000
1 30 15.5978160144 4.4006276995 14.4793366915 0 0 0 0 0 0 0.000000
1 31 19.1544470351 1.2671917354 14.5375839171 0 0 0 0 0 0 0.000000
1 32 19.3008596959 3.1927663183 13.0219703998 0 0 0 0 0 0 0.000000
1 33 16.8117385618 2.5143706864 13.4770767269 0 0 0 0 0 0 0.000000
1 34 16.8112554068 4.4014796156 11.9350598041 0 0 0 0 0 0 0.000000
1 35 14.3987818535 3.7685220886 12.3998523279 0 0 0 0 0 0 0.000000
1 36 14.4424700552 5.6784465315 10.8572237254 0 0 0 0 0 0 0.000000
1 37 20.1363370672 1.1451631005 12.1001231399 0 0 0 0 0 0 0.000000
1 38 20.4492998144 2.9995626024 10.355080358 0 0 0 0 0 0 0.000000
1 39 18.000089677 2.5070403664 10.9504335934 0 0 0 0 0 0 0.000000
1 40 17.8869157148 4.3784452031 9.3990442989 0 0 0 0 0 0 0.000000
1 41 15.6015783123 3.771397723 9.8492573901 0 0 0 0 0 0 0.000000
1 42 15.6461127885 5.6848972241 8.2747305192 0 0 0 0 0 0 0.000000
1 43 19.1024505864 2.5087659131 8.3460355592 0 0 0 0 0 0 0.000000
1 44 19.1693882416 4.4362733188 6.7662602251 0 0 0 0 0 0 0.000000
1 45 16.7933265621 3.7718366543 7.265631682 0 0 0 0 0 0 0.000000
1 46 16.8266316012 5.6813935135 5.717773017 0 0 0 0 0 0 0.000000
1 47 14.4234886963 5.0503339684 6.1887665507 0 0 0 0 0 0 0.000000
1 48 20.2002451991 2.5075915314 5.828463057 0 0 0 0 0 0 0.000000
1 49 20.1728790619 4.2674387954 4.3308237772 0 0 0 0 0 0 0.000000
1 50 17.918283892 3.7403629625 4.7052968628 0 0 0 0 0 0 0.000000
1 51 18.0106329512 5.6675814201 3.1838164219 0 0 0 0 0 0 0.000000
1 52 15.6273657346 5.0502598375 3.6391169833 0 0 0 0 0 0 0.000000
1 53 19.0918474804 3.7638683047 2.1201838825 0 0 0 0 0 0 0.000000
1 54 19.0978270486 5.6670574052 0.5748925014 0 0 0 0 0 0 0.000000
1 55 16.7777633804 5.040816917 1.0686141134 0 0 0 0 0 0 0.000000
1 56 20.3532357052 3.6805151737 15.319035977 0 0 0 0 0 0 0.000000
1 57 20.2025346992 5.7114289503 13.5643626652 0 0 0 0 0 0 0.000000
1 58 17.955620678 5.0228581438 14.0130843994 0 0 0 0 0 0 0.000000
1 59 19.2920753186 5.0269236544 11.3987905094 0 0 0 0 0 0 0.000000
1 60 20.0118164362 4.9539101437 8.8748653208 0 0 0 0 0 0 0.000000
1 61 11.0237019982 0.5886221573 12.3007670144 0 0 0 0 0 0 0.000000
1 62 12.1507775243 0.6023622879 9.782844252 0 0 0 0 0 0 0.000000
1 63 13.2426829553 0.6084245992 7.1797457786 0 0 0 0 0 0 0.000000
1 64 10.7431564459 0.2137704592 7.7857676621 0 0 0 0 0 0 0.000000
1 65 11.1447970203 1.9951629224 6.0368400664 0 0 0 0 0 0 0.000000
1 66 11.9379441767 6.2771371068 5.1139853764 0 0 0 0 0 0 0.000000
1 67 12.0649753297 1.8627266245 3.5859015066 0 0 0 0 0 0 0.000000
1 68 13.2999994796 6.3225263834 2.5659475428 0 0 0 0 0 0 0.000000
1 69 13.3152736235 1.9105446023 0.9754334222 0 0 0 0 0 0 0.000000
1 70 11.1520061975 1.3361912435 1.4986672312 0 0 0 0 0 0 0.000000
1 71 10.7944857946 3.3163713775 -0.0117531903 0 0 0 0 0 0 0.000000
1 72 11.9379211048 1.2688520887 14.4782920804 0 0 0 0 0 0 0.000000
1 73 11.8829574736 3.0915527027 12.8419302322 0 0 0 0 0 0 0.000000
1 74 13.2639847956 1.260480407 11.8611359665 0 0 0 0 0 0 0.000000
1 75 13.2800727764 3.1345612929 10.3202749634 0 0 0 0 0 0 0.000000
1 76 10.7873600061 2.5532979531 10.3448926407 0 0 0 0 0 0 0.000000
1 77 12.1419121176 2.49962793 8.2067067234 0 0 0 0 0 0 0.000000
1 78 11.9607538086 4.4510706653 6.724986391 0 0 0 0 0 0 0.000000
1 79 13.337617905 2.5514094384 5.6547851893 0 0 0 0 0 0 0.000000
1 80 13.2669533794 4.435442196 4.108889232 0 0 0 0 0 0 0.000000
1 81 11.0033386831 3.7637440851 4.5678411014 0 0 0 0 0 0 0.000000
1 82 10.9157249632 5.7805627659 2.8309475729 0 0 0 0 0 0 0.000000
1 83 12.1236511836 3.7908201577 2.020616184 0 0 0 0 0 0 0.000000
1 84 12.1353930162 5.6943777307 0.480630606 0 0 0 0 0 0 0.000000
1 85 13.2168266436 3.7872033083 14.9335274759 0 0 0 0 0 0 0.000000
1 86 13.3154780883 5.7128730622 13.4173307048 0 0 0 0 0 0 0.000000
1 87 11.0775959359 5.1863003878 13.7860504811 0 0 0 0 0 0 0.000000
1 88 12.0619914699 5.0107266433 11.3554893395 0 0 0 0 0 0 0.000000
1 89 13.3740397133 5.0721577355 8.7296504174 0 0 0 0 0 0 0.000000
1 90 0.4580991602 1.7845087325 1.4708378271 0 0 0 0 0 0 0.000000
1 91 21.5352445632 6.1089634868 0.0296561111 0 0 0 0 0 0 0.000000
1 92 0.0090095372 0.5891263446 10.4295795334 0 0 0 0 0 0 0.000000
1 93 1.3099455978 0.6593949025 8.2145110286 0 0 0 0 0 0 0.000000
1 94 21.5492755804 3.0202808064 7.8252848199 0 0 0 0 0 0 0.000000
1 95 2.5142836652 0.6258584843 5.6392755715 0 0 0 0 0 0 0.000000
1 96 1.0610943867 3.260213273 5.0663638447 0 0 0 0 0 0 0.000000
1 97 0.2092727699 5.7890412274 4.5343552398 0 0 0 0 0 0 0.000000
1 98 3.6345443421 0.6615945962 3.07661506 0 0 0 0 0 0 0.000000
1 99 1.2748629394 1.3432091205 3.5785652125 0 0 0 0 0 0 0.000000
1 100 2.44715609 3.2012359737 2.5405684778 0 0 0 0 0 0 0.000000
1 101 21.5880590209 3.8170884784 2.5577931371 0 0 0 0 0 0 0.000000
1 102 1.3296324214 5.7668619882 2.0091367782 0 0 0 0 0 0 0.000000
1 103 4.8427638472 0.6415181575 0.4974896941 0 0 0 0 0 0 0.000000
1 104 2.580452971 1.2560382542 0.9391403219 0 0 0 0 0 0 0.000000
1 105 3.6436133729 3.1869848853 15.4852362699 0 0 0 0 0 0 0.000000
1 106 1.304781342 3.8307026533 0.4449841116 0 0 0 0 0 0 0.000000
1 107 1.118071861 1.8714920738 14.491785244 0 0 0 0 0 0 0.000000
1 108 0.3101425023 4.3317203275 13.7805000536 0 0 0 0 0 0 0.000000
1 109 1.0948704852 0.0675480853 12.8486038913 0 0 0 0 0 0 0.000000
1 110 2.4568712526 1.8976435874 11.8592842091 0 0 0 0 0 0 0.000000
1 111 0.2108339403 2.5786341133 12.3229033689 0 0 0 0 0 0 0.000000
1 112 1.2552995334 4.4805674913 11.344807739 0 0 0 0 0 0 0.000000
1 113 2.4664861848 0.0199961493 10.3162732413 0 0 0 0 0 0 0.000000
1 114 3.6285036731 1.9186791737 9.2773459732 0 0 0 0 0 0 0.000000
1 115 1.3248091844 2.559583119 9.7884664626 0 0 0 0 0 0 0.000000
1 116 2.5294260716 4.4182485518 8.7123180362 0 0 0 0 0 0 0.000000
1 117 0.4178821489 4.9815486716 9.2484677534 0 0 0 0 0 0 0.000000
1 118 3.6269111865 0.0195542717 7.7253396322 0 0 0 0 0 0 0.000000
1 119 4.780460247 1.9339960313 6.6990446887 0 0 0 0 0 0 0.000000
1 120 2.4044423395 2.5589523496 7.1648762904 0 0 0 0 0 0 0.000000
1 121 3.5827439814 4.449523023 6.168003707 0 0 0 0 0 0 0.000000
1 122 1.119249217 5.0505465944 6.7191483508 0 0 0 0 0 0 0.000000
1 123 4.8017976474 0.0245617679 5.1580113474 0 0 0 0 0 0 0.000000
1 124 6.0050569703 1.9357063183 4.1492899328 0 0 0 0 0 0 0.000000
1 125 3.5823044486 2.5736647539 4.6225948173 0 0 0 0 0 0 0.000000
1 126 4.8057767018 4.4533575133 3.6183355653 0 0 0 0 0 0 0.000000
1 127 2.4473747547 5.081638237 4.0824398268 0 0 0 0 0 0 0.000000
1 128 5.9757289504 0.0239849074 2.5983769971 0 0 0 0 0 0 0.000000
1 129 4.7747356704 2.5709188151 2.069994242 0 0 0 0 0 0 0.000000
1 130 5.9792636109 4.4575493308 1.0493331587 0 0 0 0 0 0 0.000000
1 131 3.6349260531 5.0907315838 1.5153907025 0 0 0 0 0 0 0.000000
1 132 2.4175776701 5.7165022138 14.9195400948 0 0 0 0 0 0 0.000000
1 133 6.022001919 0.6375032772 13.4656942032 0 0 0 0 0 0 0.000000
1 134 3.6049537808 1.2756500428 13.9348272257 0 0 0 0 0 0 0.000000
1 135 4.8117251936 3.1831270068 12.9270808723 0 0 0 0 0 0 0.000000
1 136 2.5163465602 3.7787156085 13.4058838084 0 0 0 0 0 0 0.000000
1 137 3.6017065515 5.7247988736 12.3958263742 0 0 0 0 0 0 0.000000
1 138 4.8107313992 1.2769166363 11.388355352 0 0 0 0 0 0 0.000000
1 139 5.9574362333 3.1901014173 10.3628148684 0 0 0 0 0 0 0.000000
1 140 3.6322514768 3.8171714367 10.8455140341 0 0 0 0 0 0 0.000000
1 141 4.7766314698 5.7292378775 9.835013617 0 0 0 0 0 0 0.000000
1 142 5.9564762077 1.2927792726 8.8081463212 0 0 0 0 0 0 0.000000
1 143 4.8102035417 3.8212005691 8.2553816934 0 0 0 0 0 0 0.000000
1 144 5.960260277 5.7338018158 7.2413782178 0 0 0 0 0 0 0.000000
1 145 5.9972872476 3.822245298 5.6944510847 0 0 0 0 0 0 0.000000
1 146 5.9824894566 2.5509265251 15.0078757805 0 0 0 0 0 0 0.000000
1 147 4.8074775473 5.0903858847 14.4665386025 0 0 0 0 0 0 0.000000
1 148 6.0128391279 5.0930948326 11.9196324359 0 0 0 0 0 0 0.000000
1 149 7.0355723168 1.9565486455 1.6289699967 0 0 0 0 0 0 0.000000
1 150 7.1707296948 0.0081763792 0.0287514803 0 0 0 0 0 0 0.000000
1 151 7.1889990588 0.6587341541 10.9301115881 0 0 0 0 0 0 0.000000
1 152 8.2852657278 0.6707649372 8.3141451842 0 0 0 0 0 0 0.000000
1 153 7.1221169317 3.1963471953 7.7817751671 0 0 0 0 0 0 0.000000
1 154 9.3989418782 0.6425927913 5.7755126592 0 0 0 0 0 0 0.000000
1 155 7.141141936 1.3159610661 6.2332125048 0 0 0 0 0 0 0.000000
1 156 8.4822487942 3.1473832224 5.2308491532 0 0 0 0 0 0 0.000000
1 157 7.0960927116 5.7695434663 4.6798394645 0 0 0 0 0 0 0.000000
1 158 8.4985866278 1.336133964 3.5943624583 0 0 0 0 0 0 0.000000
1 159 9.6846725643 3.4097952652 2.5501567406 0 0 0 0 0 0 0.000000
1 160 7.1910203041 3.8324441621 3.1628896569 0 0 0 0 0 0 0.000000
1 161 8.3232983991 5.7112497633 2.1218987582 0 0 0 0 0 0 0.000000
1 162 9.1413740161 1.4297713535 1.0668996708 0 0 0 0 0 0 0.000000
1 163 8.2813688493 3.7790574669 0.5571710487 0 0 0 0 0 0 0.000000
1 164 8.3530206763 1.8734396245 14.4827648664 0 0 0 0 0 0 0.000000
1 165 7.1635941309 4.4646760051 14.0040426951 0 0 0 0 0 0 0.000000
1 166 8.5326019492 6.2858730733 13.0202202764 0 0 0 0 0 0 0.000000
1 167 9.3432373126 2.028401448 12.0721541386 0 0 0 0 0 0 0.000000
1 168 7.1046705194 2.5811387351 12.4455277174 0 0 0 0 0 0 0.000000
1 169 8.487876543 4.4678899399 11.3819226169 0 0 0 0 0 0 0.000000
1 170 9.6181645572 0.1820271531 10.3457010329 0 0 0 0 0 0 0.000000
1 171 8.2697413634 2.5517687197 9.8730567937 0 0 0 0 0 0 0.000000
1 172 9.2055239348 4.5781075099 8.8642098451 0 0 0 0 0 0 0.000000
1 173 7.0559495314 5.1285817854 9.3761798103 0 0 0 0 0 0 0.000000
1 174 9.5584839989 2.6641501759 7.5657860009 0 0 0 0 0 0 0.000000
1 175 8.3369730021 5.0755602328 6.7459352161 0 0 0 0 0 0 0.000000
1 176 9.2912725715 5.2018985444 4.3167090687 0 0 0 0 0 0 0.000000
1 177 9.6538297625 5.7123887668 0.006823495 0 0 0 0 0 0 0.000000
1 178 9.3931632429 3.7669763116 13.5543584737 0 0 0 0 0 0 0.000000
2 179 6.97 3.86 11.44 0.30381400 606.84639706 -0.11678600 1.390407 0.248011 0.130049 1.315073
2 180 6.98 0.71521942 3.67 0.30161400 602.55231126 -0.05198600 1.387206 0.246938 0.126928 1.314747
2 181 7.28 4.15 4.75 0.30181400 615.92796132 0.09201400 1.406971 0.248872 0.169208 1.370215
2 182 7.28 1.04521942 4.63 0.36901400 604.63099429 0.09411400 1.402604 0.254886 0.190131 1.382262
2 183 7.33 0.95521942 12.53 0.26301400 604.01558194 0.08081400 1.398182 0.237036 0.183782 1.379222
2 184 7.5 4.42 5.5 0.31131400 617.67345437 0.09191400 1.388358 0.246897 0.170913 1.372536
2 185 7.51 1.91 4.76 0.29991400 600.36454947 0.11011400 1.398135 0.248223 0.188004 1.376439
2 186 7.52 5.09 12.54 0.29111400 596.86156954 0.11791400 1.398987 0.246218 0.200978 1.391857
2 187 7.52 1.21521942 13.23 0.32351400 617.45082987 0.08081400 1.389874 0.238309 0.178734 1.373745
2 188 7.53 5.69 11.86 0.25371400 588.75636496 0.08111400 1.411322 0.248092 0.200562 1.399138
2 189 8.14 3.09 2.04 0.27331400 616.91266654 0.06201400 1.368543 0.209126 0.169494 1.375245
2 190 8.15 5.76 10.42 0.25501400 602.21124177 0.04741400 1.402877 0.234500 0.170004 1.382610
2 191 8.16 2.51 6.71 0.24511400 589.25790293 -0.03308600 1.392485 0.236262 0.133405 1.347402
2 192 8.17 5.11 15.12 0.13081400 588.52675476 -0.02478600 1.369967 0.207091 0.138537 1.342303
2 193 8.2 2.63 2.59 0.22021400 592.01860636 0.06201400 1.382555 0.214462 0.171570 1.379852
2 194 8.29 5.59 14.53 0.13081400 544.73690146 -0.02458600 1.369329 0.208282 0.137625 1.348903
2 195 8.49 2.31 2.28 0.22021400 614.94970952 0.09201400 1.382321 0.219552 0.165274 1.378343
2 196 8.51 2.97 3.6 0.22971400 572.74759825 0.02071400 1.436760 0.257591 0.203707 1.399260
2 197 8.54 0.23521942 14.64 0.15381400 517.79441464 -0.03748600 1.384213 0.238119 0.176682 1.361972
2 198 8.61 1.48 6.93 0.41931400 604.18378321 -0.03388600 1.381748 0.233614 0.128573 1.349310
2 199 8.64 1.97 6.37 0.24651400 590.00884520 -0.03408600 1.398216 0.231425 0.132927 1.350277
2 200 8.64 4.67 14.72 0.14801400 581.68248808 -0.02468600 1.380080 0.196387 0.138994 1.342848
2 201 8.69 5.13 14.25 0.14801400 553.53792534 -0.02518600 1.380890 0.196804 0.138271 1.344442
2 202 9.37 3.17 10.9 0.16521400 523.04618440 -0.06398600 1.379097 0.227446 0.182463 1.344395
2 203 9.41 0.03521942 3.16 0.16061400 506.27612133 -0.06068600 1.373335 0.226902 0.183645 1.336207
2 204 9.49 3.66 10.27 0.05861400 488.95539339 -0.07208600 1.363710 0.194863 0.167714 1.341838
2 205 9.5 4.67 1.38 -0.00798600 488.38374240 -0.12138600 1.327363 0.163943 0.138539 1.324078
2 206 9.58 0.52521942 2.49 0.06171400 467.94315278 -0.08798600 1.323848 0.168991 0.147862 1.315118
2 207 9.7 3.02 9.18 0.19401400 536.64727458 -0.05808600 1.384264 0.229917 0.147531 1.331105
2 208 9.84 6.29 1.6 0.11921400 521.25315043 -0.03428600 1.347289 0.199333 0.154525 1.323972
2 209 9.87 1.69 2.61 -0.06258600 430.02712543 -0.09558600 1.288006 0.136130 0.129983 1.297168
2 210 10.03 0.05521942 1.51 0.11921400 530.21372693 -0.03248600 1.346206 0.199253 0.158238 1.327840
2 211 10.21 3.26 8.96 0.19401400 550.87822376 -0.05648600 1.384825 0.229736 0.152558 1.337776
2 212 10.66 3.05 8.75 0.26001400 535.59941597 -0.05328600 1.396214 0.225237 0.145820 1.332799
2 213 10.71 6.1 1.21 0.20011400 530.67924526 -0.03708600 1.368354 0.224327 0.152485 1.316523
2 214 10.9 1.5 8.94 -0.02888600 479.98526574 -0.29258600 1.333174 0.161991 0.136952 1.322400
2 215 10.93 3.63 7.81 0.17541400 490.65565551 -0.03258600 1.389684 0.203174 0.142687 1.343157
2 216 10.93 0.46521942 0.06 0.09561400 490.73223239 -0.04258600 1.353015 0.194422 0.150940 1.318905
2 217 11.05 6.32 14.95 0.20431400 514.33471165 -0.05298600 1.369367 0.231039 0.181628 1.327769
2 218 11.06 3.16 7.17 0.19261400 525.64787115 -0.06288600 1.378738 0.235669 0.187929 1.359829
2 219 11.08 5.79 10.28 0.25461400 554.22751327 0.00221400 1.404849 0.248189 0.193685 1.386491
2 220 11.1 2.61 2.5 0.33591400 559.51214916 0.02231400 1.388179 0.246062 0.168753 1.357913
2 221 11.74 1.95 11.6 0.15231400 552.90052405 -0.05708600 1.376910 0.195891 0.131281 1.335453
2 222 11.78 1.49 11.13 0.15231400 579.42455387 -0.05588600 1.375460 0.195427 0.129278 1.337843
2 223 11.91 3.37 11.21 0.16861400 530.78874585 -0.06118600 1.414092 0.242384 0.172140 1.367929
2 224 11.91 6.08 6.74 0.19611400 548.68711639 0.00561400 1.394457 0.252913 0.202170 1.389494
2 225 11.93 5.44 8.03 0.20281400 615.24724384 0.04211400 1.403996 0.221377 0.178372 1.405051
2 226 11.95 2.89 14.45 0.26341400 576.09655736 0.06471400 1.440948 0.262316 0.215094 1.419106
2 227 12.14 2.4 11.32 0.13301400 548.74186261 -0.05518600 1.367828 0.206057 0.131048 1.336450
2 228 12.21 5.75 7.74 0.20291400 592.42827517 0.04191400 1.403352 0.221708 0.178192 1.404414
2 229 12.24 2.56 15.43 0.29111400 605.08710230 0.09931400 1.401208 0.241539 0.168971 1.390752
2 230 12.25 1.92 10.75 0.13311400 588.48670424 -0.05498600 1.368702 0.205908 0.129023 1.337297
2 231 12.27 6.22 8.3 0.26051400 616.68152787 0.04161400 1.384980 0.220807 0.177821 1.402446
2 232 12.88 2.5 13.98 0.26511400 591.61372111 0.08341400 1.408655 0.248722 0.191590 1.394615
2 233 12.88 4.35 12.6 0.30661400 610.70063232 0.07411400 1.393261 0.240018 0.185067 1.385586
2 234 12.89 1.9 13.31 0.29431400 599.90171878 0.11731400 1.402431 0.246620 0.193591 1.387948
2 235 12.91 1.20521942 4.81 0.32291400 615.74133155 0.12961400 1.389840 0.246558 0.182532 1.381654
2 236 9.71 1.6 9.11 -0.10578600 445.93892249 -0.15218600 1.316561 0.137888 0.133686 1.316421
2 237 9.76 2.51 4.12 -0.11998600 395.73659688 -0.15008600 1.304191 0.125306 0.129054 1.310811
2 238 9.79 4.3 5.87 -0.15418600 366.57411690 -0.20438600 1.283862 0.158016 0.156671 1.299074
2 239 9.81 5.6 11.91 -0.15868600 394.08050120 -0.16338600 1.307583 0.118024 0.116368 1.302531
2 240 9.83 1.12521942 13.63 -0.12408600 364.19843282 -0.17338600 1.283028 0.150293 0.157301 1.294588
2 241 9.84 5.14 12.42 -0.15868600 390.81760087 -0.19848600 1.303524 0.121804 0.129308 1.306423
2 242 9.84 0.82521942 2.57 0.06711400 431.75870133 -0.05608600 1.300219 0.155567 0.144651 1.317830
2 243 9.86 4.33 1.07 -0.01068600 473.79277129 -0.12168600 1.323399 0.164487 0.133445 1.315004
2 244 9.87 4.94 1.62 -0.00798600 448.16531096 -0.12048600 1.327989 0.164901 0.139090 1.323735
2 245 9.89 1.42 8.95 -0.10578600 439.10317297 -0.15308600 1.317423 0.139078 0.133515 1.312835
2 246 9.89 2.05 4.63 -0.16378600 381.25301998 -0.19778600 1.298256 0.125844 0.128103 1.306643
2 247 9.94 4.05 6.21 -0.09658600 343.32379435 -0.20488600 1.282411 0.117881 0.155485 1.301482
2 248 9.96 2.14 4.52 -0.16378600 372.81591324 -0.19768600 1.296220 0.124843 0.128536 1.308009
2 249 9.97 4.14 10.42 0.06741400 410.67083692 -0.07828600 1.319020 0.153659 0.161093 1.327716
2 250 9.97 4.77 10.45 0.01261400 410.68335127 -0.07838600 1.335966 0.157348 0.161941 1.330224
2 251 9.98 1.47 8.99 -0.10578600 432.83118416 -0.15338600 1.316969 0.139090 0.133106 1.310072
2 252 9.98 5.32 12.22 -0.15868600 375.93602692 -0.19858600 1.308597 0.117416 0.128050 1.310026
2 253 10.01 0.77521942 14.11 -0.16548600 333.93099696 -0.20868600 1.294169 0.145239 0.141240 1.303500
2 254 10.02 0.84521942 14.02 -0.16548600 333.69914162 -0.20868600 1.296338 0.145343 0.144660 1.305458
2 255 10.03 4.12 6.28 -0.14478600 334.33685886 -0.21298600 1.302627 0.146911 0.140573 1.299183
2 256 10.05 3.39 6.02 -0.14478600 414.42741264 -0.21158600 1.301690 0.145502 0.140472 1.302664
2 257 10.07 0.50521942 4.06 -0.15448600 382.45768302 -0.21338600 1.296391 0.143752 0.141273 1.301307
2 258 10.07 1.14521942 14.93698005 -0.02708600 342.14242049 -0.09488600 1.296637 0.141861 0.148222 1.306470
2 259 10.08 0.66521942 14.05 -0.16548600 342.41932883 -0.20848600 1.295446 0.145059 0.142604 1.303830
2 260 10.09 4.45 7.17 -0.08678600 347.10424320 -0.11968600 1.302974 0.127616 0.128681 1.313551
2 261 10.13 1.5 13.77 -0.12408600 338.21133498 -0.17358600 1.285987 0.157223 0.151170 1.294450
2 262 10.14 4.75 6.03 -0.15418600 332.04227383 -0.20458600 1.282854 0.157644 0.156068 1.298267
2 263 10.15 1.61 14.99 -0.02718600 350.12763661 -0.09528600 1.298244 0.144254 0.147651 1.307431
2 264 10.16 4.81 7.23 -0.08678600 352.46472109 -0.11968600 1.301660 0.127622 0.127208 1.309809
2 265 10.16 0.55521942 14.05 -0.16548600 353.05050530 -0.20818600 1.295441 0.145257 0.142903 1.303646
2 266 10.19 5.29 11.71 -0.15878600 350.28742034 -0.19838600 1.309472 0.119728 0.126786 1.306576
2 267 10.2 2.15 3.9 -0.11998600 347.94036736 -0.15068600 1.303272 0.128539 0.123724 1.304979
2 268 10.21 1.99 13.84 -0.14918600 350.38554824 -0.18928600 1.309209 0.124674 0.125946 1.307130
2 269 10.21 5.15 12.01 -0.15858600 350.83909387 -0.19838600 1.310055 0.115658 0.127437 1.306194
2 270 10.21 5.18 6.08 -0.15278600 339.38388716 -0.18888600 1.284432 0.116456 0.121227 1.303219
2 271 10.22 1.97 4.29 -0.16378600 347.27529959 -0.19798600 1.298631 0.125069 0.128043 1.307358
2 272 10.23 2.11 14.09 -0.14918600 349.48060115 -0.18948600 1.305703 0.126956 0.126531 1.306557
2 273 10.24 5.3 6.35 -0.12708600 337.67720711 -0.18758600 1.291140 0.100160 0.124829 1.293368
2 274 10.26 1.71 3.1 -0.06258600 358.81364796 -0.09518600 1.286810 0.136301 0.132228 1.297167
2 275 10.26 4.8 10.82 0.01261400 357.33564317 -0.07848600 1.336584 0.155857 0.161293 1.331561
2 276 10.28 1.6 4.33 -0.16378600 340.86547610 -0.19818600 1.296611 0.124914 0.128397 1.309304
2 277 10.29 4.66 12.08 -0.12848600 338.99962312 -0.17918600 1.280508 0.153563 0.154268 1.294959
2 278 10.32 3.69 11.84 -0.16778600 359.56813049 -0.20718600 1.298884 0.142248 0.139306 1.304514
2 279 10.33 4.32 10.89 0.06221400 347.92580372 0.03641400 1.300832 0.135414 0.145467 1.303742
2 280 10.33 1.20521942 3.19 -0.03178600 349.68557804 -0.03518600 1.269093 0.106730 0.139188 1.271787
2 281 10.37 0.28521942 4.31 -0.15448600 414.13743550 -0.21278600 1.296178 0.147107 0.141305 1.300443
2 282 10.38 0.90521942 4.06 -0.15448600 342.19781940 -0.21298600 1.295894 0.148012 0.141826 1.300654
2 283 10.39 3.63 6.27 -0.14478600 384.05082042 -0.21028600 1.302532 0.145503 0.141880 1.303313
2 284 10.39 3.98 11.81 -0.16778600 337.57832310 -0.20738600 1.297906 0.141686 0.139004 1.305525
2 285 10.42 2.14 13.66 -0.14918600 372.76096166 -0.18968600 1.306657 0.125027 0.128040 1.307260
2 286 10.42 5.32 5.89 -0.15278600 358.60730775 -0.18848600 1.282770 0.113071 0.123299 1.301623
2 287 10.42 0.98521942 15.41698005 -0.02718600 404.41565607 -0.09498600 1.293506 0.139685 0.148281 1.306897
2 288 10.45 1.57 15.4 -0.02718600 404.10535845 -0.09538600 1.297782 0.141024 0.147913 1.308234
2 289 10.46 4.19 7.65 -0.08678600 412.01706764 -0.11908600 1.302018 0.128562 0.127438 1.313132
2 290 10.47 4.79 7.63 -0.08678600 409.01073105 -0.11928600 1.301115 0.128043 0.128762 1.312980
2 291 10.48 0.83521942 4.14 -0.15448600 353.44593952 -0.21348600 1.296629 0.146785 0.140442 1.301646
2 292 10.54 5.17 5.72 -0.15268600 370.42576446 -0.18628600 1.283432 0.118514 0.125242 1.298051
2 293 10.56 1.95 13.45 -0.14908600 388.22400150 -0.18938600 1.305961 0.131114 0.129394 1.310483
2 294 10.56 2.37 13.92 -0.14918600 385.38395857 -0.18808600 1.307909 0.125339 0.127336 1.310771
2 295 10.57 1.18 9.24 -0.03108600 466.74287400 -0.29358600 1.319491 0.162481 0.136698 1.321824
2 296 10.57 5.58 6.19 -0.12718600 370.38713064 -0.16388600 1.292933 0.115380 0.116679 1.299492
2 297 10.58 1.74 8.73 -0.02888600 447.52793754 -0.14648600 1.336630 0.160433 0.131302 1.315293
2 298 10.59 4.28 12.23 -0.12848600 366.50343566 -0.17908600 1.280144 0.153405 0.154324 1.294842
2 299 10.59 4.68 1.3 -0.10358600 441.07184255 -0.14418600 1.314649 0.130705 0.129068 1.312941
2 300 10.64 1.10521942 4.49 -0.13478600 376.63623333 -0.18858600 1.284523 0.155461 0.153828 1.301896
2 301 10.7 4.73 1.22 -0.10358600 447.88228785 -0.14398600 1.315217 0.132567 0.129547 1.315400
3 302 11.2348756876 4.5516247905 9.2224574585 0 0 0 0 0 0 0.000000
3 303 0.3085764262 1.1768253064 6.0274763338 0 0 0 0 0 0 0.000000
