ITEM: TIMESTEP
0
ITEM: NUMBER OF ATOMS
126
ITEM: BOX BOUNDS pp pp pp
0.0 26.96058909
0.0 5.666
0.0 8.95873261
ITEM: ATOMS type id x y z SE CD SE_NF BC ZPE ZPE_NF BC_NF
1 1 8.1108167581 1.4165 1.7968975589 0 0 0 0 0 0 0
1 2 4.5010156233 1.4165 0.0015066712 0 0 0 0 0 0 0
1 3 6.3037790065 0.0012953231 0.8981278141 0 0 0 0 0 0 0
1 4 5.402032185 1.4165 2.6882153076 0 0 0 0 0 0 0
1 5 7.2041791937 -0.0027594919 3.5819169816 0 0 0 0 0 0 0
1 6 6.2975984649 1.4165 5.3740296156 0 0 0 0 0 0 0
1 7 8.1001278195 -0.0029646896 6.2684379218 0 0 0 0 0 0 0
1 8 7.2001883957 1.4165 8.0632425112 0 0 0 0 0 0 0
1 9 1.8005207179 1.4165 0.8959238702 0 0 0 0 0 0 0
1 10 3.6007956156 2.4411026753e-04 1.7904508599 0 0 0 0 0 0 0
1 11 2.7005718373 1.4165 3.581707254 0 0 0 0 0 0 0
1 12 4.4996029966 -4.4631462424e-05 4.4784870116 0 0 0 0 0 0 0
1 13 3.5989122601 1.4165 6.2706433577 0 0 0 0 0 0 0
1 14 5.3997335588 3.8259334313e-04 7.1682097961 0 0 0 0 0 0 0
1 15 0.0010334186 6.3688392164e-05 -7.2245432033e-04 0 0 0 0 0 0 0
1 16 0.9005566367 -1.8453404185e-04 2.6862856892 0 0 0 0 0 0 0
1 17 0.001020479 1.4165 4.4786805063 0 0 0 0 0 0 0
1 18 1.7991849802 6.8918543994e-05 5.3741058174 0 0 0 0 0 0 0
1 19 0.9012903855 1.4165 7.1673877999 0 0 0 0 0 0 0
1 20 2.7004741367 6.6174670877e-04 8.0626334239 0 0 0 0 0 0 0
1 21 8.1108354863 4.2495 1.7971815771 0 0 0 0 0 0 0
1 22 4.5002818771 4.2495 0.0012683217 0 0 0 0 0 0 0
1 23 6.3037790065 2.8317046769 0.8981278141 0 0 0 0 0 0 0
1 24 5.4004585293 4.2495 2.6857748745 0 0 0 0 0 0 0
1 25 7.2041791937 2.8357594919 3.5819169816 0 0 0 0 0 0 0
1 26 6.2975503757 4.2495 5.3732959159 0 0 0 0 0 0 0
1 27 8.1001278195 2.8359646896 6.2684379218 0 0 0 0 0 0 0
1 28 7.1969256722 4.2495 8.064372379 0 0 0 0 0 0 0
1 29 1.8012968453 4.2495 0.8956716084 0 0 0 0 0 0 0
1 30 3.6007956156 2.8327558897 1.7904508599 0 0 0 0 0 0 0
1 31 2.6997954313 4.2495 3.5816032959 0 0 0 0 0 0 0
1 32 4.4996029966 2.8330446315 4.4784870116 0 0 0 0 0 0 0
1 33 3.5995192591 4.2495 6.2713559765 0 0 0 0 0 0 0
1 34 5.3997335588 2.8326174067 7.1682097961 0 0 0 0 0 0 0
1 35 0.0010334186 2.8329363116 -7.2245432033e-04 0 0 0 0 0 0 0
1 36 0.9005566367 2.833184534 2.6862856892 0 0 0 0 0 0 0
1 37 0.0010966019 4.2495 4.4782986819 0 0 0 0 0 0 0
1 38 1.7991849802 2.8329310815 5.3741058174 0 0 0 0 0 0 0
1 39 0.9016280318 4.2495 7.1667975751 0 0 0 0 0 0 0
1 40 2.7004741367 2.8323382533 8.0626334239 0 0 0 0 0 0 0
1 41 17.0682454167 1.4165 1.7929564742 0 0 0 0 0 0 0
1 42 13.4699147343 1.4165 0.0141408169 0 0 0 0 0 0 0
1 43 15.2657160621 -0.0029646896 0.898548168 0 0 0 0 0 0 0
1 44 14.4016411613 1.4165 2.679524219 0 0 0 0 0 0 0
1 45 16.1616646879 -0.0027594919 3.5850690992 0 0 0 0 0 0 0
1 46 15.2550271235 1.4165 5.3700885309 0 0 0 0 0 0 0
1 47 17.0620648751 0.0012953231 6.2688582757 0 0 0 0 0 0 0
1 48 16.1656554859 1.4165 8.0624761886 0 0 0 0 0 0 0
1 49 10.7784950518 1.4165 0.8652882632 0 0 0 0 0 0 0
1 50 12.5499167477 0.0445970663 1.85247161 0 0 0 0 0 0 0
1 51 13.4147036011 0.04508392 4.450757056 0 0 0 0 0 0 0
1 52 12.5873488298 1.4165 6.3016978266 0 0 0 0 0 0 0
1 53 14.3673357999 -0.0026687822 7.1657919583 0 0 0 0 0 0 0
1 54 8.9985080817 -0.0026687822 0.0011941315 0 0 0 0 0 0 0
1 55 9.9511402805 0.04508392 2.7162290347 0 0 0 0 0 0 0
1 56 8.9642027203 1.4165 4.4874618717 0 0 0 0 0 0 0
1 57 10.8159271339 0.0445970663 5.3145144798 0 0 0 0 0 0 0
1 58 9.8959291473 1.4165 7.1528452729 0 0 0 0 0 0 0
1 59 11.6829219354 -0.0069120647 8.0628593499 0 0 0 0 0 0 0
1 60 17.0682935059 4.2495 1.7936901739 0 0 0 0 0 0 0
1 61 13.4695319773 4.2495 0.0142170214 0 0 0 0 0 0 0
1 62 15.2657160621 2.8359646896 0.898548168 0 0 0 0 0 0 0
1 63 14.3525563449 4.2495 2.6962943785 0 0 0 0 0 0 0
1 64 16.1616646879 2.8357594919 3.5850690992 0 0 0 0 0 0 0
1 65 15.2550083953 4.2495 5.3698045127 0 0 0 0 0 0 0
1 66 17.0620648751 2.8317046769 6.2688582757 0 0 0 0 0 0 0
1 67 16.1689182094 4.2495 8.0613463208 0 0 0 0 0 0 0
1 68 10.7937805892 4.2495 0.9168094207 0 0 0 0 0 0 0
1 69 12.5499167477 2.7884029337 1.85247161 0 0 0 0 0 0 0
1 70 11.6829219354 4.2495 3.5834930404 0 0 0 0 0 0 0
1 71 13.4147036011 2.78791608 4.450757056 0 0 0 0 0 0 0
1 72 12.5720632924 4.2495 6.2501766691 0 0 0 0 0 0 0
1 73 14.3673357999 2.8356687822 7.1657919583 0 0 0 0 0 0 0
1 74 8.9985080817 2.8356687822 0.0011941315 0 0 0 0 0 0 0
1 75 9.9511402805 2.78791608 2.7162290347 0 0 0 0 0 0 0
1 76 9.0132875367 4.2495 4.4706917122 0 0 0 0 0 0 0
1 77 10.8159271339 2.7884029337 5.3145144798 0 0 0 0 0 0 0
1 78 9.8963119043 4.2495 7.1527690684 0 0 0 0 0 0 0
1 79 11.6829219354 2.8399120647 8.0628593499 0 0 0 0 0 0 0
1 80 26.0638646892 1.4165 1.7916127381 0 0 0 0 0 0 0
1 81 22.464553496 1.4165 -4.0171012379e-04 0 0 0 0 0 0 0
1 82 24.2643852243 -2.2764700956e-04 0.8965955894 0 0 0 0 0 0 0
1 83 23.3648234026 1.4165 2.6883055844 0 0 0 0 0 0 0
1 84 25.1632164858 -1.5397944358e-04 3.5834930404 0 0 0 0 0 0 0
1 85 24.2625682824 1.4165 5.3753733517 0 0 0 0 0 0 0
1 86 26.0620477473 -2.2764700956e-04 6.2703905004 0 0 0 0 0 0 0
1 87 25.1632164858 1.4165 8.0628593499 0 0 0 0 0 0 0
1 88 19.7669316134 1.4165 0.8963427321 0 0 0 0 0 0 0
1 89 21.5666589014 6.8918543994e-05 1.7928802723 0 0 0 0 0 0 0
1 90 20.6652720443 1.4165 3.5852788269 0 0 0 0 0 0 0
1 91 22.4652872449 -1.8453404185e-04 4.4807004015 0 0 0 0 0 0 0
1 92 21.5653231637 1.4165 6.2710622196 0 0 0 0 0 0 0
1 93 23.364810463 6.3688392164e-05 7.1677085441 0 0 0 0 0 0 0
1 94 17.9661103228 3.8259334313e-04 -0.0012237063 0 0 0 0 0 0 0
1 95 18.8662408876 -4.4631462424e-05 2.6884990791 0 0 0 0 0 0 0
1 96 17.9638116966 1.4165 4.4787707831 0 0 0 0 0 0 0
1 97 19.7650482579 2.4411026753e-04 5.3765352299 0 0 0 0 0 0 0
1 98 18.864828261 1.4165 7.1654794186 0 0 0 0 0 0 0
1 99 20.6653697449 6.6174670877e-04 8.0630852759 0 0 0 0 0 0 0
1 100 26.0633162779 4.2495 1.7919116951 0 0 0 0 0 0 0
1 101 22.4642158498 4.2495 1.8851464699e-04 0 0 0 0 0 0 0
1 102 24.2643852243 2.833227647 0.8965955894 0 0 0 0 0 0 0
1 103 23.3647472797 4.2495 2.6886874088 0 0 0 0 0 0 0
1 104 25.1632164858 2.8331539794 3.5834930404 0 0 0 0 0 0 0
1 105 24.2631166937 4.2495 5.3750743947 0 0 0 0 0 0 0
1 106 26.0620477473 2.833227647 6.2703905004 0 0 0 0 0 0 0
1 107 25.1632164858 4.2495 8.0628593499 0 0 0 0 0 0 0
1 108 19.7663246144 4.2495 0.8956301133 0 0 0 0 0 0 0
1 109 21.5666589014 2.8329310815 1.7928802723 0 0 0 0 0 0 0
1 110 20.6660484503 4.2495 3.585382785 0 0 0 0 0 0 0
1 111 22.4652872449 2.833184534 4.4807004015 0 0 0 0 0 0 0
1 112 21.5645470363 4.2495 6.2713144814 0 0 0 0 0 0 0
1 113 23.364810463 2.8329363116 7.1677085441 0 0 0 0 0 0 0
1 114 17.9661103228 2.8326174067 -0.0012237063 0 0 0 0 0 0 0
1 115 18.8662408876 2.8330446315 2.6884990791 0 0 0 0 0 0 0
1 116 17.9653853523 4.2495 4.4812112162 0 0 0 0 0 0 0
1 117 19.7650482579 2.8327558897 5.3765352299 0 0 0 0 0 0 0
1 118 18.8655620072 4.2495 7.1657177681 0 0 0 0 0 0 0
1 119 20.6653697449 2.8323382533 8.0630852759 0 0 0 0 0 0 0
2 120 11.68 1.4099 3.58 -0.37798599 158.02121538 -0.3949860 1.304852 0.143037 0.135759 1.305165
2 121 11.68 0.59399 3.58 -0.37798599 190.39926006 -0.3946859 1.303958 0.143073 0.135535 1.312236
2 122 13.0315 2.83308 3.13482 0.4097140 349.67821540 0.122514 1.446135 0.292941 0.243069 1.447811
2 123 14.3771 2.833 2.68791 0.409714 438.42516381 0.122514 1.446083 0.292950 0.242755 1.451779
2 124 13.0324 1.4165 3.13515 -0.394185 252.97718846 -0.410585 1.304557 0.145083 0.139177 1.298635
2 125 13.72 2.82 2.9 0.4097140 418.69008115 0.122314 1.447063 0.293040 0.243062 1.450410
2 126 14.58 2.86 3.37 0.407314 424.50131824 0.1655140 1.406725 0.279427 0.232018 1.408354
