ITEM: TIMESTEP
0
ITEM: NUMBER OF ATOMS
126
ITEM: BOX BOUNDS pp pp pp
0.0 27.074382912
0.0 5.666
0.0 8.95873261
ITEM: ATOMS type id x y z SE CD SE_NF BC ZPE ZPE_NF BC_NF
1 1 8.1026581754 1.4165 1.7952219757 0 0 0 0 0 0 0
1 2 4.4972545379 1.4165 -0.0028844752 0 0 0 0 0 0 0
1 3 6.2941940138 0.0038233085 0.8945584157 0 0 0 0 0 0 0
1 4 5.399063504 1.4165 2.6893279156 0 0 0 0 0 0 0
1 5 7.2025960457 0.0011084253 3.5869117396 0 0 0 0 0 0 0
1 6 6.3038295595 1.4165 5.3779631308 0 0 0 0 0 0 0
1 7 8.107092458 7.6461807015e-04 6.2763405313 0 0 0 0 0 0 0
1 8 7.2029170566 1.4165 8.0653194511 0 0 0 0 0 0 0
1 9 1.7973907049 1.4165 0.8949413743 0 0 0 0 0 0 0
1 10 3.5989922401 7.1723332346e-04 1.7897903697 0 0 0 0 0 0 0
1 11 2.7004569216 1.4165 3.5818440508 0 0 0 0 0 0 0
1 12 4.5011055784 3.3340498922e-04 4.4781785495 0 0 0 0 0 0 0
1 13 3.5999725056 1.4165 6.2684962888 0 0 0 0 0 0 0
1 14 5.4009746313 3.0395388542e-04 7.1671860168 0 0 0 0 0 0 0
1 15 -0.0028364032 1.3591332165e-04 -2.8915138323e-04 0 0 0 0 0 0 0
1 16 0.898671972 3.5525874153e-04 2.6873201743 0 0 0 0 0 0 0
1 17 -0.0025096697 1.4165 4.4782911396 0 0 0 0 0 0 0
1 18 1.7994144578 2.3178685729e-05 5.3736170941 0 0 0 0 0 0 0
1 19 0.8974263568 1.4165 7.165423948 0 0 0 0 0 0 0
1 20 2.6987887495 4.6069238267e-04 8.0605718504 0 0 0 0 0 0 0
1 21 8.0887406618 4.2495 1.7891437491 0 0 0 0 0 0 0
1 22 4.4967945957 4.2495 -0.0028327301 0 0 0 0 0 0 0
1 23 6.2941940138 2.8291766915 0.8945584157 0 0 0 0 0 0 0
1 24 5.3998860302 4.2495 2.6871477793 0 0 0 0 0 0 0
1 25 7.2025960457 2.8318915747 3.5869117396 0 0 0 0 0 0 0
1 26 6.3044323173 4.2495 5.3774455738 0 0 0 0 0 0 0
1 27 8.107092458 2.8322353819 6.2763405313 0 0 0 0 0 0 0
1 28 7.2037861055 4.2495 8.0674378317 0 0 0 0 0 0 0
1 29 1.7976074371 4.2495 0.8944893401 0 0 0 0 0 0 0
1 30 3.5989922401 2.8322827667 1.7897903697 0 0 0 0 0 0 0
1 31 2.7006524966 4.2495 3.5817003359 0 0 0 0 0 0 0
1 32 4.5011055784 2.832666595 4.4781785495 0 0 0 0 0 0 0
1 33 3.6010463172 4.2495 6.2682337471 0 0 0 0 0 0 0
1 34 5.4009746313 2.8326960461 7.1671860168 0 0 0 0 0 0 0
1 35 -0.0028364032 2.8328640867 -2.8915138323e-04 0 0 0 0 0 0 0
1 36 0.898671972 2.8326447413 2.6873201743 0 0 0 0 0 0 0
1 37 -0.0021418622 4.2495 4.478685252 0 0 0 0 0 0 0
1 38 1.7994144578 2.8329768213 5.3736170941 0 0 0 0 0 0 0
1 39 0.8977244131 4.2495 7.1658906473 0 0 0 0 0 0 0
1 40 2.6987887495 2.8325393076 8.0605718504 0 0 0 0 0 0 0
1 41 17.1606356345 1.4165 1.789022959 0 0 0 0 0 0 0
1 42 13.5481138945 1.4165 -0.0082494894 0 0 0 0 0 0 0
1 43 15.3573727361 7.6461807015e-04 0.8906455585 0 0 0 0 0 0 0
1 44 14.4568772122 1.4165 2.680591093 0 0 0 0 0 0 0
1 45 16.2618691483 0.0011084253 3.5800743413 0 0 0 0 0 0 0
1 46 15.3618070186 1.4165 5.371764114 0 0 0 0 0 0 0
1 47 17.1702711803 0.0038233085 6.2724276741 0 0 0 0 0 0 0
1 48 16.2615481374 1.4165 8.0603992486 0 0 0 0 0 0 0
1 49 10.8228139699 1.4165 0.8920649503 0 0 0 0 0 0 0
1 50 12.6533266494 -0.0190480883 1.7624487439 0 0 0 0 0 0 0
1 51 13.5744034373 -0.0181722058 4.4880577043 0 0 0 0 0 0 0
1 52 12.6416512241 1.4165 6.2749211394 0 0 0 0 0 0 0
1 53 14.4566903236 0.0038762352 7.1575909067 0 0 0 0 0 0 0
1 54 9.0077748704 0.0038762352 0.0093951831 0 0 0 0 0 0 0
1 55 9.8900617567 -0.0181722058 2.6789283864 0 0 0 0 0 0 0
1 56 9.0075879818 1.4165 4.4863949977 0 0 0 0 0 0 0
1 57 10.8111385446 -0.0190480883 5.4045373459 0 0 0 0 0 0 0
1 58 9.9163512995 1.4165 7.1752355792 0 0 0 0 0 0 0
1 59 11.7322325916 0.0010970513 8.0628593499 0 0 0 0 0 0 0
1 60 17.1600328768 4.2495 1.789540516 0 0 0 0 0 0 0
1 61 13.5549799695 4.2495 -0.0220850039 0 0 0 0 0 0 0
1 62 15.3573727361 2.8322353819 0.8906455585 0 0 0 0 0 0 0
1 63 14.4545171001 4.2495 2.6804729301 0 0 0 0 0 0 0
1 64 16.2618691483 2.8318915747 3.5800743413 0 0 0 0 0 0 0
1 65 15.3757245322 4.2495 5.3778423407 0 0 0 0 0 0 0
1 66 17.1702711803 2.8291766915 6.2724276741 0 0 0 0 0 0 0
1 67 16.2606790885 4.2495 8.0582808681 0 0 0 0 0 0 0
1 68 10.8228875522 4.2495 0.8959511686 0 0 0 0 0 0 0
1 69 12.6533266494 2.8520480883 1.7624487439 0 0 0 0 0 0 0
1 70 11.7322325916 4.2495 3.5834930404 0 0 0 0 0 0 0
1 71 13.5744034373 2.8511722058 4.4880577043 0 0 0 0 0 0 0
1 72 12.6415776418 4.2495 6.2710349212 0 0 0 0 0 0 0
1 73 14.4566903236 2.8291237648 7.1575909067 0 0 0 0 0 0 0
1 74 9.0077748704 2.8291237648 0.0093951831 0 0 0 0 0 0 0
1 75 9.8900617567 2.8511722058 2.6789283864 0 0 0 0 0 0 0
1 76 9.0099480939 4.2495 4.4865131605 0 0 0 0 0 0 0
1 77 10.8111385446 2.8520480883 5.4045373459 0 0 0 0 0 0 0
1 78 9.9094852245 4.2495 7.1890710937 0 0 0 0 0 0 0
1 79 11.7322325916 2.8319029487 8.0628593499 0 0 0 0 0 0 0
1 80 26.1703104641 1.4165 1.7918662855 0 0 0 0 0 0 0
1 81 22.5670388372 1.4165 0.0015621418 0 0 0 0 0 0 0
1 82 24.3688553404 3.8674031379e-05 0.8968261025 0 0 0 0 0 0 0
1 83 23.4669748637 1.4165 2.6886949511 0 0 0 0 0 0 0
1 84 25.269424053 -1.5225184884e-04 3.5834930404 0 0 0 0 0 0 0
1 85 24.3685376419 1.4165 5.3751198043 0 0 0 0 0 0 0
1 86 26.1699927656 3.8674031379e-05 6.2701599873 0 0 0 0 0 0 0
1 87 25.269424053 1.4165 8.0628593499 0 0 0 0 0 0 0
1 88 19.8644926803 1.4165 0.898489801 0 0 0 0 0 0 0
1 89 21.6650507363 2.3178685729e-05 1.7933689957 0 0 0 0 0 0 0
1 90 20.7640082724 1.4165 3.58514203 0 0 0 0 0 0 0
1 91 22.565793222 3.5525874153e-04 4.4796659164 0 0 0 0 0 0 0
1 92 21.6670744891 1.4165 6.2720447155 0 0 0 0 0 0 0
1 93 23.4673015972 1.3591332165e-04 7.1672752412 0 0 0 0 0 0 0
1 94 18.0634905627 3.0395388542e-04 -1.9992702255e-04 0 0 0 0 0 0 0
1 95 18.9633596183 3.3340498922e-04 2.6888075412 0 0 0 0 0 0 0
1 96 18.06540169 1.4165 4.477658175 0 0 0 0 0 0 0
1 97 19.8654729458 7.1723332346e-04 5.3771957201 0 0 0 0 0 0 0
1 98 18.9672106589 1.4165 7.169870565 0 0 0 0 0 0 0
1 99 20.7656764445 4.6069238267e-04 8.0651468494 0 0 0 0 0 0 0
1 100 26.1703760718 4.2495 1.7917491657 0 0 0 0 0 0 0
1 101 22.5667407809 4.2495 0.0010954424 0 0 0 0 0 0 0
1 102 24.3688553404 2.832961326 0.8968261025 0 0 0 0 0 0 0
1 103 23.4666070562 4.2495 2.6883008387 0 0 0 0 0 0 0
1 104 25.269424053 2.8331522518 3.5834930404 0 0 0 0 0 0 0
1 105 24.3684720342 4.2495 5.375236924 0 0 0 0 0 0 0
1 106 26.1699927656 2.832961326 6.2701599873 0 0 0 0 0 0 0
1 107 25.269424053 4.2495 8.0628593499 0 0 0 0 0 0 0
1 108 19.8634188687 4.2495 0.8987523427 0 0 0 0 0 0 0
1 109 21.6650507363 2.8329768213 1.7933689957 0 0 0 0 0 0 0
1 110 20.7638126974 4.2495 3.5852857449 0 0 0 0 0 0 0
1 111 22.565793222 2.8326447413 4.4796659164 0 0 0 0 0 0 0
1 112 21.6668577569 4.2495 6.2724967497 0 0 0 0 0 0 0
1 113 23.4673015972 2.8328640867 7.1672752412 0 0 0 0 0 0 0
1 114 18.0634905627 2.8326960461 -1.9992702255e-04 0 0 0 0 0 0 0
1 115 18.9633596183 2.832666595 2.6888075412 0 0 0 0 0 0 0
1 116 18.0645791638 4.2495 4.4798383114 0 0 0 0 0 0 0
1 117 19.8654729458 2.8322827667 5.3771957201 0 0 0 0 0 0 0
1 118 18.967670601 4.2495 7.1698188199 0 0 0 0 0 0 0
1 119 20.7656764445 2.8325393076 8.0651468494 0 0 0 0 0 0 0
2 120 11.7322 0 3.58349 1.576214 422.54464799 0.8095140 1.537473 0.407246 0.281429 1.487153
2 121 13.0836 2.83291 3.13494 0.42411 427.38241822 0.0806140 1.456219 0.284788 0.228904 1.412319
2 122 14.4557 2.8333 2.68053 0.318414 433.86004206 0.08731400 1.440500 0.278189 0.231140 1.441663
2 123 13.0949 1.4165 3.13334 1.3872 418.41774373 0.0887139 1.470270 0.390475 0.235670 1.418140
2 124 13.76 2.83 2.9 0.31841 424.45868155 0.086814 1.439931 0.278164 0.231016 1.441800
2 125 14.68 2.83 3.35 0.3709 421.33257608 0.132614 1.431541 0.283160 0.237570 1.402520
3 126 11.7322325916 1.4165 3.5834930404 0 0 0 0 0 0 0
