ITEM: TIMESTEP
0
ITEM: NUMBER OF ATOMS
126
ITEM: BOX BOUNDS pp pp pp
0.0 27.058579708
0.0 5.666
0.0 8.95873261
ITEM: ATOMS type id x y z SE CD SE_NF BC ZPE ZPE_NF BC_NF
1 1 8.1074245812 1.4165 1.7994706636 0 0 0 0 0 0 0
1 2 4.4964538112 1.4165 -0.0034184024 0 0 0 0 0 0 0
1 3 6.296949535 0.0029392105 0.8953806569 0 0 0 0 0 0 0
1 4 5.4018006379 1.4165 2.6893080076 0 0 0 0 0 0 0
1 5 7.2087973789 0.0024844291 3.5874921337 0 0 0 0 0 0 0
1 6 6.3069366951 1.4165 5.3768364909 0 0 0 0 0 0 0
1 7 8.1120239801 0.0024041434 6.2742411906 0 0 0 0 0 0 0
1 8 7.2043981353 1.4165 8.0657944143 0 0 0 0 0 0 0
1 9 1.7985265869 1.4165 0.8949762073 0 0 0 0 0 0 0
1 10 3.6001232758 7.793743976e-04 1.7896948442 0 0 0 0 0 0 0
1 11 2.7017874731 1.4165 3.5817426713 0 0 0 0 0 0 0
1 12 4.5032892535 2.7105669483e-04 4.4781830993 0 0 0 0 0 0 0
1 13 3.6013043479 1.4165 6.268100266 0 0 0 0 0 0 0
1 14 5.4020096473 3.4470458315e-04 7.1661838372 0 0 0 0 0 0 0
1 15 -0.0019323196 1.2663709262e-04 -4.6560228717e-04 0 0 0 0 0 0 0
1 16 0.8994864353 2.9654535042e-04 2.6870365162 0 0 0 0 0 0 0
1 17 -0.0012968208 1.4165 4.478406767 0 0 0 0 0 0 0
1 18 1.800502616 -5.1234858028e-06 5.3730905527 0 0 0 0 0 0 0
1 19 0.8985951614 1.4165 7.1653513639 0 0 0 0 0 0 0
1 20 2.6987817095 3.9190319311e-04 8.0597912271 0 0 0 0 0 0 0
1 21 8.1009225453 4.2495 1.7947507558 0 0 0 0 0 0 0
1 22 4.4975112352 4.2495 -0.0024259422 0 0 0 0 0 0 0
1 23 6.296949535 2.8300607895 0.8953806569 0 0 0 0 0 0 0
1 24 5.4023667475 4.2495 2.6872048174 0 0 0 0 0 0 0
1 25 7.2087973789 2.8305155709 3.5874921337 0 0 0 0 0 0 0
1 26 6.30708834 4.2495 5.3765431875 0 0 0 0 0 0 0
1 27 8.1120239801 2.8305958566 6.2742411906 0 0 0 0 0 0 0
1 28 7.2047679886 4.2495 8.0664886242 0 0 0 0 0 0 0
1 29 1.7993701936 4.2495 0.8949257882 0 0 0 0 0 0 0
1 30 3.6001232758 2.8322206256 1.7896948442 0 0 0 0 0 0 0
1 31 2.7016847615 4.2495 3.5815423201 0 0 0 0 0 0 0
1 32 4.5032892535 2.8327289433 4.4781830993 0 0 0 0 0 0 0
1 33 3.6020005301 4.2495 6.2679892361 0 0 0 0 0 0 0
1 34 5.4020096473 2.8326552954 7.1661838372 0 0 0 0 0 0 0
1 35 -0.0019323196 2.8328733629 -4.6560228717e-04 0 0 0 0 0 0 0
1 36 0.8994864353 2.8327034546 2.6870365162 0 0 0 0 0 0 0
1 37 -0.0011025812 4.2495 4.478294929 0 0 0 0 0 0 0
1 38 1.800502616 2.8330051235 5.3730905527 0 0 0 0 0 0 0
1 39 0.8984812009 4.2495 7.165120205 0 0 0 0 0 0 0
1 40 2.6987817095 2.8326080968 8.0597912271 0 0 0 0 0 0 0
1 41 17.1438323887 1.4165 1.7901495989 0 0 0 0 0 0 0
1 42 13.5342291374 1.4165 -0.0041244427 0 0 0 0 0 0 0
1 43 15.3387451038 0.0024041434 0.8927448992 0 0 0 0 0 0 0
1 44 14.438327819 1.4165 2.6821826298 0 0 0 0 0 0 0
1 45 16.241971705 0.0024844291 3.5794939471 0 0 0 0 0 0 0
1 46 15.3433445027 1.4165 5.3675154262 0 0 0 0 0 0 0
1 47 17.1538195488 0.0029392105 6.2716054329 0 0 0 0 0 0 0
1 48 16.2463709485 1.4165 8.0599242854 0 0 0 0 0 0 0
1 49 10.8206696553 1.4165 0.8973650653 0 0 0 0 0 0 0
1 50 12.6282835463 -0.0015554786 1.791156205 0 0 0 0 0 0 0
1 51 13.5323777499 -8.7417953461e-04 4.4745044555 0 0 0 0 0 0 0
1 52 12.6300994285 1.4165 6.2696210245 0 0 0 0 0 0 0
1 53 14.4404124209 0.0044388046 7.1550409641 0 0 0 0 0 0 0
1 54 9.010356663 0.0044388046 0.0119451256 0 0 0 0 0 0 0
1 55 9.918391334 -8.7417953461e-04 2.6924816351 0 0 0 0 0 0 0
1 56 9.0124412648 1.4165 4.4848034609 0 0 0 0 0 0 0
1 57 10.8224855376 -0.0015554786 5.3758298848 0 0 0 0 0 0 0
1 58 9.9165399464 1.4165 7.1711105325 0 0 0 0 0 0 0
1 59 11.7253845365 0.0044186605 8.0628593499 0 0 0 0 0 0 0
1 60 17.1436807438 4.2495 1.7904429023 0 0 0 0 0 0 0
1 61 13.5374241519 4.2495 -0.0113470545 0 0 0 0 0 0 0
1 62 15.3387451038 2.8305958566 0.8927448992 0 0 0 0 0 0 0
1 63 14.4353359178 4.2495 2.6839076128 0 0 0 0 0 0 0
1 64 16.241971705 2.8305155709 3.5794939471 0 0 0 0 0 0 0
1 65 15.3498465386 4.2495 5.372235334 0 0 0 0 0 0 0
1 66 17.1538195488 2.8300607895 6.2716054329 0 0 0 0 0 0 0
1 67 16.2460010953 4.2495 8.0592300756 0 0 0 0 0 0 0
1 68 10.8208448049 4.2495 0.8998501685 0 0 0 0 0 0 0
1 69 12.6282835463 2.8345554786 1.791156205 0 0 0 0 0 0 0
1 70 11.7253845365 4.2495 3.5834930404 0 0 0 0 0 0 0
1 71 13.5323777499 2.8338741795 4.4745044555 0 0 0 0 0 0 0
1 72 12.629924279 4.2495 6.2671359213 0 0 0 0 0 0 0
1 73 14.4404124209 2.8285611954 7.1550409641 0 0 0 0 0 0 0
1 74 9.010356663 2.8285611954 0.0119451256 0 0 0 0 0 0 0
1 75 9.918391334 2.8338741795 2.6924816351 0 0 0 0 0 0 0
1 76 9.0154331661 4.2495 4.4830784779 0 0 0 0 0 0 0
1 77 10.8224855376 2.8345554786 5.3758298848 0 0 0 0 0 0 0
1 78 9.9133449319 4.2495 7.1783331443 0 0 0 0 0 0 0
1 79 11.7253845365 2.8285813395 8.0628593499 0 0 0 0 0 0 0
1 80 26.1559891446 1.4165 1.7918243248 0 0 0 0 0 0 0
1 81 22.5521739225 1.4165 0.0016347259 0 0 0 0 0 0 0
1 82 24.3540495748 -6.8592883554e-05 0.8968268969 0 0 0 0 0 0 0
1 83 23.4520659047 1.4165 2.6885793237 0 0 0 0 0 0 0
1 84 25.2546743959 -9.4935220278e-05 3.5834930404 0 0 0 0 0 0 0
1 85 24.3533596473 1.4165 5.375161765 0 0 0 0 0 0 0
1 86 26.155299217 -6.8592883554e-05 6.2701591929 0 0 0 0 0 0 0
1 87 25.2546743959 1.4165 8.0628593499 0 0 0 0 0 0 0
1 88 19.8494647279 1.4165 0.8988858237 0 0 0 0 0 0 0
1 89 21.6502664679 -5.1234858028e-06 1.7938955371 0 0 0 0 0 0 0
1 90 20.7489816108 1.4165 3.5852434096 0 0 0 0 0 0 0
1 91 22.5512826486 2.9654535042e-04 4.4799495745 0 0 0 0 0 0 0
1 92 21.6522424969 1.4165 6.2720098824 0 0 0 0 0 0 0
1 93 23.4527014035 1.2663709262e-04 7.1674516921 0 0 0 0 0 0 0
1 94 18.0487594365 3.4470458315e-04 8.0225261567e-04 0 0 0 0 0 0 0
1 95 18.9474798331 2.7105669483e-04 2.6888029914 0 0 0 0 0 0 0
1 96 18.048968446 1.4165 4.4776780831 0 0 0 0 0 0 0
1 97 19.8506458 7.793743976e-04 5.3772912456 0 0 0 0 0 0 0
1 98 18.9543152754 1.4165 7.1704044922 0 0 0 0 0 0 0
1 99 20.7519873744 3.9190319311e-04 8.0659274727 0 0 0 0 0 0 0
1 100 26.1560640583 4.2495 1.7920942313 0 0 0 0 0 0 0
1 101 22.552287883 4.2495 0.0018658848 0 0 0 0 0 0 0
1 102 24.3540495748 2.8330685929 0.8968268969 0 0 0 0 0 0 0
1 103 23.4518716651 4.2495 2.6886911616 0 0 0 0 0 0 0
1 104 25.2546743959 2.8330949352 3.5834930404 0 0 0 0 0 0 0
1 105 24.3532847336 4.2495 5.3748918585 0 0 0 0 0 0 0
1 106 26.155299217 2.8330685929 6.2701591929 0 0 0 0 0 0 0
1 107 25.2546743959 4.2495 8.0628593499 0 0 0 0 0 0 0
1 108 19.8487685457 4.2495 0.8989968537 0 0 0 0 0 0 0
1 109 21.6502664679 2.8330051235 1.7938955371 0 0 0 0 0 0 0
1 110 20.7490843224 4.2495 3.5854437607 0 0 0 0 0 0 0
1 111 22.5512826486 2.8327034546 4.4799495745 0 0 0 0 0 0 0
1 112 21.6513988903 4.2495 6.2720603016 0 0 0 0 0 0 0
1 113 23.4527014035 2.8328733629 7.1674516921 0 0 0 0 0 0 0
1 114 18.0487594365 2.8326552954 8.0225261567e-04 0 0 0 0 0 0 0
1 115 18.9474798331 2.8327289433 2.6888029914 0 0 0 0 0 0 0
1 116 18.0484023364 4.2495 4.4797812732 0 0 0 0 0 0 0
1 117 19.8506458 2.8322206256 5.3772912456 0 0 0 0 0 0 0
1 118 18.9532578514 4.2495 7.169412032 0 0 0 0 0 0 0
1 119 20.7519873744 2.8326080968 8.0659274727 0 0 0 0 0 0 0
2 120 11.73 0 3.58348 0.924913 414.54798086 0.3269140 1.320903 0.321740 0.175256 1.357613
2 121 13.0828 2.83295 3.13528 0.377813 418.49408783 0.14581399 1.418512 0.280318 0.234855 1.405333
2 122 14.4424 2.833 2.68428 0.39171 437.44703126 0.15491399 1.426611 0.283498 0.239824 1.425200     
2 123 13.0872 1.4165 3.12688 0.46131 411.41304979 0.238914 1.382543 0.266449 0.203455 1.390285
2 124 13.75 2.83 2.9 0.39171 422.95631218 0.1547140 1.426773 0.283492 0.239515 1.428492
2 125 14.67 2.833 3.36 0.412814 429.98743967 0.1712139 1.429497 0.282759 0.237386 1.406655
3 126 11.7253845365 1.4165 3.5834930404 0 0 0 0 0 0 0
