ITEM: TIMESTEP
0
ITEM: NUMBER OF ATOMS
126
ITEM: BOX BOUNDS pp pp pp
0.0 27.03084347
0.0 5.666
0.0 8.95873261
ITEM: ATOMS type id x y z SE CD SE_NF BC ZPE ZPE_NF BC_NF
1 1 8.109253041 1.4165 1.7917465202 0 0 0 0 0 0 0
1 2 4.5051405846 1.4165 0.0 0 0 0 0 0 0 0
1 3 6.3071968115 0.0 0.8958732601 0 0 0 0 0 0 0
1 4 5.4061686967 1.4165 2.6876197803 0 0 0 0 0 0 0
1 5 7.2082249262 0.0 3.5834930404 0 0 0 0 0 0 0
1 6 6.3071968115 1.4165 5.3752395696 0 0 0 0 0 0 0
1 7 8.109253041 0.0 6.2711128297 0 0 0 0 0 0 0
1 8 7.2082249262 1.4165 8.0628593499 0 0 0 0 0 0 0
1 9 1.8020562295 1.4165 0.8958732601 0 0 0 0 0 0 0
1 10 3.6041124591 0.0 1.7917465202 0 0 0 0 0 0 0
1 11 2.7030843443 1.4165 3.5834930404 0 0 0 0 0 0 0
1 12 4.5051405846 0.0 4.4793663104 0 0 0 0 0 0 0
1 13 3.6041124591 1.4165 6.2711128297 0 0 0 0 0 0 0
1 14 5.4061686967 0.0 7.1669860898 0 0 0 0 0 0 0
1 15 0.0 0.0 0.0 0 0 0 0 0 0 0
1 16 0.9010281148 0.0 2.6876197803 0 0 0 0 0 0 0
1 17 0.0 1.4165 4.4793663104 0 0 0 0 0 0 0
1 18 1.8020562295 0.0 5.3752395696 0 0 0 0 0 0 0
1 19 0.9010281148 1.4165 7.1669860898 0 0 0 0 0 0 0
1 20 2.7030843443 0.0 8.0628593499 0 0 0 0 0 0 0
1 21 8.109253041 4.2495 1.7917465202 0 0 0 0 0 0 0
1 22 4.5051405846 4.2495 0.0 0 0 0 0 0 0 0
1 23 6.3071968115 2.833 0.8958732601 0 0 0 0 0 0 0
1 24 5.4061686967 4.2495 2.6876197803 0 0 0 0 0 0 0
1 25 7.2082249262 2.833 3.5834930404 0 0 0 0 0 0 0
1 26 6.3071968115 4.2495 5.3752395696 0 0 0 0 0 0 0
1 27 8.109253041 2.833 6.2711128297 0 0 0 0 0 0 0
1 28 7.2082249262 4.2495 8.0628593499 0 0 0 0 0 0 0
1 29 1.8020562295 4.2495 0.8958732601 0 0 0 0 0 0 0
1 30 3.6041124591 2.833 1.7917465202 0 0 0 0 0 0 0
1 31 2.7030843443 4.2495 3.5834930404 0 0 0 0 0 0 0
1 32 4.5051405846 2.833 4.4793663104 0 0 0 0 0 0 0
1 33 3.6041124591 4.2495 6.2711128297 0 0 0 0 0 0 0
1 34 5.4061686967 2.833 7.1669860898 0 0 0 0 0 0 0
1 35 0.0 2.833 0.0 0 0 0 0 0 0 0
1 36 0.9010281148 2.833 2.6876197803 0 0 0 0 0 0 0
1 37 0.0 4.2495 4.4793663104 0 0 0 0 0 0 0
1 38 1.8020562295 2.833 5.3752395696 0 0 0 0 0 0 0
1 39 0.9010281148 4.2495 7.1669860898 0 0 0 0 0 0 0
1 40 2.7030843443 2.833 8.0628593499 0 0 0 0 0 0 0
1 41 17.1195341995 1.4165 1.7917465202 0 0 0 0 0 0 0
1 42 13.5154217404 1.4165 0.0 0 0 0 0 0 0 0
1 43 15.3174779699 0.0 0.8958732601 0 0 0 0 0 0 0
1 44 14.4164498552 1.4165 2.6876197803 0 0 0 0 0 0 0
1 45 16.2185060847 0.0 3.5834930404 0 0 0 0 0 0 0
1 46 15.3174779699 1.4165 5.3752395696 0 0 0 0 0 0 0
1 47 17.1195341995 0.0 6.2711128297 0 0 0 0 0 0 0
1 48 16.2185060847 1.4165 8.0628593499 0 0 0 0 0 0 0
1 49 10.8123373853 1.4165 0.8958732601 0 0 0 0 0 0 0
1 50 12.6143936256 0.0 1.7917465202 0 0 0 0 0 0 0
1 51 11.7133655001 1.4165 3.5834930404 0 0 0 0 0 0 0
1 52 13.5154217404 0.0 4.4793663104 0 0 0 0 0 0 0
1 53 12.6143936256 1.4165 6.2711128297 0 0 0 0 0 0 0
1 54 14.4164498552 0.0 7.1669860898 0 0 0 0 0 0 0
1 55 9.0102811558 0.0 0.0 0 0 0 0 0 0 0
1 56 9.9113092705 0.0 2.6876197803 0 0 0 0 0 0 0
1 57 9.0102811558 1.4165 4.4793663104 0 0 0 0 0 0 0
1 58 10.8123373853 0.0 5.3752395696 0 0 0 0 0 0 0
1 59 9.9113092705 1.4165 7.1669860898 0 0 0 0 0 0 0
1 60 11.7133655001 0.0 8.0628593499 0 0 0 0 0 0 0
1 61 17.1195341995 4.2495 1.7917465202 0 0 0 0 0 0 0
1 62 13.5154217404 4.2495 0.0 0 0 0 0 0 0 0
1 63 15.3174779699 2.833 0.8958732601 0 0 0 0 0 0 0
1 64 14.4164498552 4.2495 2.6876197803 0 0 0 0 0 0 0
1 65 16.2185060847 2.833 3.5834930404 0 0 0 0 0 0 0
1 66 15.3174779699 4.2495 5.3752395696 0 0 0 0 0 0 0
1 67 17.1195341995 2.833 6.2711128297 0 0 0 0 0 0 0
1 68 16.2185060847 4.2495 8.0628593499 0 0 0 0 0 0 0
1 69 10.8123373853 4.2495 0.8958732601 0 0 0 0 0 0 0
1 70 12.6143936256 2.833 1.7917465202 0 0 0 0 0 0 0
1 71 11.7133655001 4.2495 3.5834930404 0 0 0 0 0 0 0
1 72 13.5154217404 2.833 4.4793663104 0 0 0 0 0 0 0
1 73 12.6143936256 4.2495 6.2711128297 0 0 0 0 0 0 0
1 74 14.4164498552 2.833 7.1669860898 0 0 0 0 0 0 0
1 75 9.0102811558 2.833 0.0 0 0 0 0 0 0 0
1 76 9.9113092705 2.833 2.6876197803 0 0 0 0 0 0 0
1 77 9.0102811558 4.2495 4.4793663104 0 0 0 0 0 0 0
1 78 10.8123373853 2.833 5.3752395696 0 0 0 0 0 0 0
1 79 9.9113092705 4.2495 7.1669860898 0 0 0 0 0 0 0
1 80 11.7133655001 2.833 8.0628593499 0 0 0 0 0 0 0
1 81 26.1298153552 1.4165 1.7917465202 0 0 0 0 0 0 0
1 82 22.5257028962 1.4165 0.0 0 0 0 0 0 0 0
1 83 24.3277591257 0.0 0.8958732601 0 0 0 0 0 0 0
1 84 23.4267310109 1.4165 2.6876197803 0 0 0 0 0 0 0
1 85 25.2287872405 0.0 3.5834930404 0 0 0 0 0 0 0
1 86 24.3277591257 1.4165 5.3752395696 0 0 0 0 0 0 0
1 87 26.1298153552 0.0 6.2711128297 0 0 0 0 0 0 0
1 88 25.2287872405 1.4165 8.0628593499 0 0 0 0 0 0 0
1 89 19.8226185438 1.4165 0.8958732601 0 0 0 0 0 0 0
1 90 21.6246747814 0.0 1.7917465202 0 0 0 0 0 0 0
1 91 20.7236466666 1.4165 3.5834930404 0 0 0 0 0 0 0
1 92 22.5257028962 0.0 4.4793663104 0 0 0 0 0 0 0
1 93 21.6246747814 1.4165 6.2711128297 0 0 0 0 0 0 0
1 94 23.4267310109 0.0 7.1669860898 0 0 0 0 0 0 0
1 95 18.0205623142 0.0 0.0 0 0 0 0 0 0 0
1 96 18.921590429 0.0 2.6876197803 0 0 0 0 0 0 0
1 97 18.0205623142 1.4165 4.4793663104 0 0 0 0 0 0 0
1 98 19.8226185438 0.0 5.3752395696 0 0 0 0 0 0 0
1 99 18.921590429 1.4165 7.1669860898 0 0 0 0 0 0 0
1 100 20.7236466666 0.0 8.0628593499 0 0 0 0 0 0 0
1 101 26.1298153552 4.2495 1.7917465202 0 0 0 0 0 0 0
1 102 22.5257028962 4.2495 0.0 0 0 0 0 0 0 0
1 103 24.3277591257 2.833 0.8958732601 0 0 0 0 0 0 0
1 104 23.4267310109 4.2495 2.6876197803 0 0 0 0 0 0 0
1 105 25.2287872405 2.833 3.5834930404 0 0 0 0 0 0 0
1 106 24.3277591257 4.2495 5.3752395696 0 0 0 0 0 0 0
1 107 26.1298153552 2.833 6.2711128297 0 0 0 0 0 0 0
1 108 25.2287872405 4.2495 8.0628593499 0 0 0 0 0 0 0
1 109 19.8226185438 4.2495 0.8958732601 0 0 0 0 0 0 0
1 110 21.6246747814 2.833 1.7917465202 0 0 0 0 0 0 0
1 111 20.7236466666 4.2495 3.5834930404 0 0 0 0 0 0 0
1 112 22.5257028962 2.833 4.4793663104 0 0 0 0 0 0 0
1 113 21.6246747814 4.2495 6.2711128297 0 0 0 0 0 0 0
1 114 23.4267310109 2.833 7.1669860898 0 0 0 0 0 0 0
1 115 18.0205623142 2.833 0.0 0 0 0 0 0 0 0
1 116 18.921590429 2.833 2.6876197803 0 0 0 0 0 0 0
1 117 18.0205623142 4.2495 4.4793663104 0 0 0 0 0 0 0
1 118 19.8226185438 2.833 5.3752395696 0 0 0 0 0 0 0
1 119 18.921590429 4.2495 7.1669860898 0 0 0 0 0 0 0
1 120 20.7236466666 2.833 8.0628593499 0 0 0 0 0 0 0
2 121 11.7134 0 3.58349 0.9119139 441.47103408 0.387513 1.383437 0.340842 0.225285 1.439792
2 122 13.0649 2.833 3.13556 0.9061139 433.55675157 0.330213 1.359176 0.339916 0.204361 1.381288
2 123 14.4164 2.833 2.68762 0.912013 440.66466779 0.387613 1.381361 0.340665 0.225367 1.442852
2 124 13.0648 1.4165 3.135 0.86421 430.97444607 0.29071 1.359952 0.333441 0.194255 1.373490
2 125 13.7359 2.8333 2.9 0.42531 428.71575704 0.18711 1.418226 0.284182 0.240767 1.421477
2 126 14.645 2.833 3.36 0.4203 431.11491122 0.18211399 1.431062 0.282813 0.237811 1.412025
